5811
# (c) 2025 a-prokhoda (Alexander S. Prokhoda) # Part of Quasicrystals Research Project
Fe -28.057348 56.243324 -22.581253
Li -28.991520 54.957546 -21.786598
Li -28.057348 54.654014 -23.375907
Li -29.568871 55.752201 -23.375907
Li -29.568871 56.734449 -21.786598
Li -28.057348 56.243323 -24.358155
Li -28.991520 57.529102 -23.375908
Li -28.057348 57.832634 -21.786599
Li -28.057348 56.243325 -20.804351
Li -27.123176 54.957546 -21.786598
Li -26.545825 55.752201 -23.375907
Li -26.545825 56.734449 -21.786598
Li -27.123176 57.529102 -23.375908
Fe -55.180524 40.698041 -40.206954
Li -55.180524 39.108731 -41.001607
Li -56.692046 40.206917 -41.001608
Li -55.180524 40.698040 -41.983855
Li -56.114696 41.983819 -41.001609
Li -56.114696 39.412264 -39.412298
Li -55.180524 40.698041 -38.430052
Li -56.692046 41.189165 -39.412300
Li -55.180524 42.287350 -39.412300
Li -53.669001 40.206917 -41.001608
Li -54.246351 41.983819 -41.001609
Li -54.246351 39.412264 -39.412298
Li -53.669001 41.189165 -39.412300
Fe -24.100130 44.064249 -46.939376
Li -24.100130 44.064249 -48.716278
Li -24.100130 42.474940 -47.734031
Li -23.165958 45.350027 -47.734032
Li -25.611653 43.573125 -47.734031
Li -25.034302 45.350027 -47.734032
Li -25.611653 44.555373 -46.144722
Li -25.034302 42.778471 -46.144721
Li -23.165958 42.778471 -46.144721
Li -24.100130 44.064250 -45.162476
Li -24.100130 45.653558 -46.144723
Li -22.588607 43.573125 -47.734031
Li -22.588607 44.555373 -46.144722
Fe -48.777610 38.617611 -36.046088
Li -48.777610 37.028301 -36.840741
Li -49.711783 37.331833 -35.251432
Li -47.843438 37.331833 -35.251432
Li -48.777610 38.617609 -37.822989
Li -50.289133 38.126486 -36.840742
Li -50.289133 39.108734 -35.251434
Li -48.777610 38.617611 -34.269185
Li -47.266088 39.108734 -35.251434
Li -47.266088 38.126486 -36.840742
Li -49.711783 39.903389 -36.840743
Li -48.777610 40.206920 -35.251433
Li -47.843438 39.903389 -36.840743
Fe -34.460261 40.698045 -32.679878
Li -35.971784 40.206921 -33.474533
Li -34.460261 40.698043 -34.456779
Li -34.460261 39.108735 -33.474532
Li -32.948738 40.206921 -33.474533
Li -35.394434 41.983823 -33.474533
Li -33.526089 41.983823 -33.474533
Li -35.971784 41.189168 -31.885224
Li -35.394434 39.412267 -31.885223
Li -33.526089 39.412267 -31.885223
Li -34.460261 40.698045 -30.902976
Li -32.948738 41.189168 -31.885224
Li -34.460261 42.287354 -31.885224
Fe -32.014566 48.225120 -32.679881
Li -32.014566 46.635811 -33.474535
Li -32.014566 48.225120 -34.456783
Li -33.526089 47.733996 -33.474536
Li -32.948738 49.510898 -33.474536
Li -30.503043 47.733996 -33.474536
Li -31.080394 49.510898 -33.474536
Li -32.948738 46.939343 -31.885226
Li -32.014566 48.225122 -30.902979
Li -33.526089 48.716244 -31.885227
Li -32.014566 49.814431 -31.885227
Li -31.080394 46.939343 -31.885226
Li -30.503043 48.716244 -31.885227
Fe -48.777610 45.350030 -40.206956
Li -48.777610 45.350029 -41.983857
Li -50.289133 44.858906 -41.001611
Li -48.777610 43.760720 -41.001610
Li -47.266088 44.858906 -41.001611
Li -49.711783 44.064252 -39.412301
Li -47.843438 44.064252 -39.412301
Li -48.777610 45.350031 -38.430054
Li -49.711783 46.635808 -41.001611
Li -47.843438 46.635808 -41.001611
Li -50.289133 45.841154 -39.412302
Li -48.777610 46.939339 -39.412302
Li -47.266088 45.841154 -39.412302
Fe -42.374697 69.217045 -18.420394
Li -43.308870 67.931268 -17.625739
Li -41.440525 67.931268 -17.625739
Li -42.374697 67.627736 -19.215047
Li -43.886220 68.725921 -19.215047
Li -43.886220 69.708169 -17.625739
Li -43.308870 70.502823 -19.215049
Li -42.374697 69.217045 -20.197295
Li -40.863174 68.725921 -19.215047
Li -40.863174 69.708169 -17.625739
Li -42.374697 70.806355 -17.625740
Li -41.440525 70.502823 -19.215049
Li -42.374697 69.217046 -16.643492
Fe -42.374697 58.323747 -43.573172
Li -43.886220 57.832623 -44.367827
Li -43.308870 59.609525 -44.367827
Li -42.374697 58.323747 -45.350074
Li -42.374697 56.734438 -44.367826
Li -40.863174 57.832623 -44.367827
Li -41.440525 59.609525 -44.367827
Li -43.886220 58.814871 -42.778518
Li -43.308870 57.037970 -42.778517
Li -41.440525 57.037970 -42.778517
Li -42.374697 59.913058 -42.778518
Li -40.863174 58.814871 -42.778518
Li -42.374697 58.323749 -41.796270
Fe -40.863174 42.778479 -29.313668
Li -40.863174 41.189169 -30.108322
Li -41.797347 41.492701 -28.519013
Li -39.929002 41.492701 -28.519013
Li -42.374697 42.287355 -30.108323
Li -41.797347 44.064257 -30.108323
Li -40.863174 42.778478 -31.090570
Li -39.351652 42.287355 -30.108323
Li -39.929002 44.064257 -30.108323
Li -42.374697 43.269602 -28.519014
Li -40.863174 44.367788 -28.519014
Li -39.351652 43.269602 -28.519014
Li -40.863174 42.778479 -27.536766
Fe -46.331915 46.144686 -36.046091
Li -47.266088 44.858908 -35.251436
Li -47.843438 45.653562 -36.840746
Li -47.266088 47.430464 -36.840746
Li -47.843438 46.635810 -35.251437
Li -46.331915 44.555377 -36.840745
Li -45.397743 44.858908 -35.251436
Li -46.331915 46.144686 -37.822993
Li -46.331915 46.144688 -34.269189
Li -44.820392 46.635810 -35.251437
Li -44.820392 45.653562 -36.840746
Li -45.397743 47.430464 -36.840746
Li -46.331915 47.733996 -35.251437
Fe -29.568871 65.056170 -40.206965
Li -29.568871 63.466861 -41.001619
Li -31.080394 64.565047 -41.001618
Li -29.568871 65.056170 -41.983867
Li -30.503043 66.341948 -41.001620
Li -28.057348 64.565047 -41.001618
Li -28.634698 66.341948 -41.001620
Li -30.503043 63.770393 -39.412310
Li -28.634698 63.770393 -39.412310
Li -31.080394 65.547294 -39.412311
Li -29.568871 65.056172 -38.430063
Li -28.057348 65.547294 -39.412311
Li -29.568871 66.645480 -39.412311
Fe -59.137742 46.144683 -43.573167
Li -60.649264 45.653559 -44.367821
Li -59.137742 44.555374 -44.367821
Li -57.626219 45.653559 -44.367821
Li -60.071914 44.858905 -42.778511
Li -58.203569 44.858905 -42.778511
Li -60.649264 46.635807 -42.778513
Li -59.137742 46.144683 -45.350069
Li -58.203569 47.430461 -44.367822
Li -60.071914 47.430461 -44.367822
Li -59.137742 47.733993 -42.778514
Li -59.137742 46.144684 -41.796266
Li -57.626219 46.635807 -42.778513
Fe -17.697217 59.609532 -29.313676
Li -19.208740 59.118408 -30.108330
Li -18.631389 58.323754 -28.519021
Li -17.697217 58.020223 -30.108330
Li -16.185694 59.118408 -30.108330
Li -17.697217 59.609531 -31.090578
Li -16.763044 58.323754 -28.519021
Li -17.697217 59.609533 -27.536774
Li -18.631389 60.895310 -30.108331
Li -19.208740 60.100656 -28.519021
Li -16.763044 60.895310 -30.108331
Li -16.185694 60.100656 -28.519021
Li -17.697217 61.198842 -28.519022
Fe -17.697217 52.877112 -25.152808
Li -19.208740 52.385989 -25.947462
Li -17.697217 51.287803 -25.947462
Li -16.185694 52.385989 -25.947462
Li -18.631389 51.591334 -24.358152
Li -16.763044 51.591334 -24.358152
Li -18.631389 54.162890 -25.947463
Li -17.697217 52.877112 -26.929710
Li -16.763044 54.162890 -25.947463
Li -19.208740 53.368237 -24.358153
Li -16.185694 53.368237 -24.358153
Li -17.697217 52.877114 -23.375906
Li -17.697217 54.466422 -24.358154
Fe -44.820392 61.689969 -18.420390
Li -44.820392 61.689969 -20.197292
Li -45.754565 60.404191 -17.625735
Li -46.331915 62.181093 -17.625736
Li -46.331915 61.198846 -19.215044
Li -45.754565 62.975747 -19.215046
Li -44.820392 60.100661 -19.215044
Li -44.820392 63.279279 -17.625737
Li -43.308870 62.181093 -17.625736
Li -43.886220 60.404191 -17.625735
Li -43.308870 61.198846 -19.215044
Li -43.886220 62.975747 -19.215046
Li -44.820392 61.689971 -16.643489
Fe -38.417479 63.770396 -31.885234
Li -39.929002 63.279273 -32.679888
Li -39.351652 65.056173 -32.679889
Li -38.417479 62.181086 -32.679888
Li -38.417479 63.770395 -33.662136
Li -36.905956 63.279273 -32.679888
Li -37.483307 65.056173 -32.679889
Li -39.351652 62.484619 -31.090579
Li -39.929002 64.261521 -31.090579
Li -37.483307 62.484619 -31.090579
Li -38.417479 63.770397 -30.108332
Li -36.905956 64.261521 -31.090579
Li -38.417479 65.359706 -31.090580
Fe -28.057348 49.510905 -18.420385
Li -28.991520 48.225127 -17.625730
Li -28.057348 47.921595 -19.215039
Li -28.057348 49.510904 -20.197286
Li -29.568871 49.019781 -19.215039
Li -28.057348 51.100214 -17.625731
Li -29.568871 50.002029 -17.625730
Li -28.991520 50.796683 -19.215040
Li -27.123176 48.225127 -17.625730
Li -26.545825 49.019781 -19.215039
Li -27.123176 50.796683 -19.215040
Li -26.545825 50.002029 -17.625730
Li -28.057348 49.510905 -16.643483
Fe -32.014566 39.903389 -36.840743
Li -33.526089 39.412264 -37.635398
Li -32.014566 38.314078 -37.635397
Li -32.014566 39.903387 -38.617644
Li -32.948738 41.189166 -37.635398
Li -32.948738 38.617611 -36.046088
Li -33.526089 40.394512 -36.046089
Li -32.014566 39.903389 -35.063841
Li -32.014566 41.492698 -36.046089
Li -30.503043 39.412264 -37.635398
Li -31.080394 41.189166 -37.635398
Li -31.080394 38.617611 -36.046088
Li -30.503043 40.394512 -36.046089
Fe -35.971784 60.404182 -40.206962
Li -35.971784 60.404181 -41.983864
Li -35.971784 58.814872 -41.001617
Li -37.483307 59.913057 -41.001617
Li -34.460261 59.913057 -41.001617
Li -36.905956 61.689960 -41.001618
Li -35.037612 61.689960 -41.001618
Li -36.905956 59.118405 -39.412308
Li -35.037612 59.118405 -39.412308
Li -37.483307 60.895305 -39.412308
Li -35.971784 61.993492 -39.412309
Li -35.971784 60.404183 -38.430061
Li -34.460261 60.895305 -39.412308
Fe -44.820392 54.957540 -36.840749
Li -46.331915 54.466416 -37.635404
Li -45.754565 56.243318 -37.635405
Li -44.820392 53.368231 -37.635404
Li -43.308870 54.466416 -37.635404
Li -44.820392 54.957540 -38.617651
Li -43.886220 56.243318 -37.635405
Li -46.331915 55.448664 -36.046095
Li -45.754565 53.671762 -36.046094
Li -44.820392 54.957541 -35.063848
Li -43.886220 53.671762 -36.046094
Li -43.308870 55.448664 -36.046095
Li -44.820392 56.546850 -36.046096
Fe -48.777610 56.243317 -39.412306
Li -50.289133 55.752193 -40.206960
Li -48.777610 54.654007 -40.206960
Li -47.266088 55.752193 -40.206960
Li -49.711783 57.529095 -40.206961
Li -48.777610 56.243316 -41.189208
Li -47.843438 57.529095 -40.206961
Li -49.711783 54.957540 -38.617651
Li -47.843438 54.957540 -38.617651
Li -48.777610 56.243318 -37.635405
Li -50.289133 56.734440 -38.617652
Li -48.777610 57.832627 -38.617652
Li -47.266088 56.734440 -38.617652
Fe -42.374697 40.698048 -25.152802
Li -42.374697 40.698047 -26.929704
Li -41.440525 41.983826 -25.947457
Li -43.308870 41.983826 -25.947457
Li -43.886220 40.206924 -25.947456
Li -43.886220 41.189172 -24.358148
Li -43.308870 39.412270 -24.358147
Li -42.374697 39.108739 -25.947456
Li -41.440525 39.412270 -24.358147
Li -42.374697 40.698049 -23.375900
Li -40.863174 40.206924 -25.947456
Li -40.863174 41.189172 -24.358148
Li -42.374697 42.287357 -24.358148
Fe -44.820392 48.225120 -32.679881
Li -44.820392 46.635811 -33.474535
Li -44.820392 48.225120 -34.456783
Li -43.308870 47.733996 -33.474536
Li -46.331915 47.733996 -33.474536
Li -45.754565 49.510898 -33.474536
Li -43.886220 49.510898 -33.474536
Li -43.886220 46.939343 -31.885226
Li -45.754565 46.939343 -31.885226
Li -46.331915 48.716244 -31.885227
Li -43.308870 48.716244 -31.885227
Li -44.820392 48.225122 -30.902979
Li -44.820392 49.814431 -31.885227
Fe -28.057348 45.350037 -25.152804
Li -29.568871 44.858913 -25.947458
Li -28.057348 43.760727 -25.947458
Li -26.545825 44.858913 -25.947458
Li -28.991520 46.635815 -25.947460
Li -28.057348 45.350035 -26.929706
Li -27.123176 46.635815 -25.947460
Li -28.991520 44.064259 -24.358149
Li -28.057348 45.350037 -23.375902
Li -27.123176 44.064259 -24.358149
Li -29.568871 45.841161 -24.358150
Li -28.057348 46.939346 -24.358150
Li -26.545825 45.841161 -24.358150
Fe -32.014566 50.796686 -11.687964
Li -33.526089 50.305562 -12.482618
Li -32.948738 52.082463 -12.482619
Li -32.948738 49.510908 -10.893309
Li -33.526089 51.287810 -10.893309
Li -32.014566 50.796685 -13.464865
Li -32.014566 49.207377 -12.482617
Li -31.080394 52.082463 -12.482619
Li -30.503043 50.305562 -12.482618
Li -31.080394 49.510908 -10.893309
Li -30.503043 51.287810 -10.893309
Li -32.014566 52.385995 -10.893310
Li -32.014566 50.796686 -9.911062
Fe -38.417479 52.877117 -15.848830
Li -39.929002 52.385993 -16.643484
Li -39.351652 51.591339 -15.054175
Li -37.483307 51.591339 -15.054175
Li -36.905956 52.385993 -16.643484
Li -38.417479 51.287807 -16.643484
Li -39.351652 54.162894 -16.643485
Li -39.929002 53.368241 -15.054175
Li -38.417479 52.877116 -17.625732
Li -36.905956 53.368241 -15.054175
Li -37.483307 54.162894 -16.643485
Li -38.417479 54.466426 -15.054176
Li -38.417479 52.877117 -14.071928
Fe -48.777610 49.510902 -25.947461
Li -48.777610 47.921592 -26.742114
Li -50.289133 49.019778 -26.742114
Li -49.711783 50.796680 -26.742116
Li -47.266088 49.019778 -26.742114
Li -48.777610 49.510900 -27.724362
Li -47.843438 50.796680 -26.742116
Li -49.711783 48.225124 -25.152805
Li -47.843438 48.225124 -25.152805
Li -50.289133 50.002025 -25.152807
Li -48.777610 49.510902 -24.170558
Li -48.777610 51.100211 -25.152806
Li -47.266088 50.002025 -25.152807
Fe -21.654435 65.056170 -40.206965
Li -23.165958 64.565047 -41.001618
Li -23.165958 65.547294 -39.412311
Li -21.654435 63.466861 -41.001619
Li -21.654435 65.056170 -41.983867
Li -22.588607 66.341948 -41.001620
Li -20.142912 64.565047 -41.001618
Li -20.720262 66.341948 -41.001620
Li -20.720262 63.770393 -39.412310
Li -22.588607 63.770393 -39.412310
Li -21.654435 65.056172 -38.430063
Li -21.654435 66.645480 -39.412311
Li -20.142912 65.547294 -39.412311
Fe -38.417479 70.502813 -43.573178
Li -39.929002 70.011689 -44.367832
Li -39.351652 71.788590 -44.367833
Li -39.351652 69.217035 -42.778523
Li -39.929002 70.993936 -42.778524
Li -38.417479 68.913503 -44.367832
Li -36.905956 70.011689 -44.367832
Li -38.417479 70.502811 -45.350080
Li -37.483307 71.788590 -44.367833
Li -37.483307 69.217035 -42.778523
Li -38.417479 70.502813 -41.796276
Li -36.905956 70.993936 -42.778524
Li -38.417479 72.092122 -42.778524
Fe -24.100130 54.957543 -29.313674
Li -24.100130 53.368234 -30.108328
Li -25.611653 54.466420 -30.108327
Li -24.100130 54.957543 -31.090576
Li -23.165958 56.243321 -30.108329
Li -25.034302 56.243321 -30.108329
Li -25.611653 55.448667 -28.519020
Li -23.165958 53.671765 -28.519018
Li -25.034302 53.671765 -28.519018
Li -24.100130 54.957545 -27.536772
Li -24.100130 56.546853 -28.519020
Li -22.588607 54.466420 -30.108327
Li -22.588607 55.448667 -28.519020
Fe -32.014566 33.170966 -40.206950
Li -32.948738 34.456743 -41.001605
Li -33.526089 32.679842 -41.001605
Li -32.014566 31.581656 -41.001604
Li -32.014566 33.170964 -41.983852
Li -31.080394 34.456743 -41.001605
Li -30.503043 32.679842 -41.001605
Li -32.948738 31.885188 -39.412295
Li -33.526089 33.662089 -39.412296
Li -31.080394 31.885188 -39.412295
Li -32.014566 34.760274 -39.412297
Li -32.014566 33.170966 -38.430049
Li -30.503043 33.662089 -39.412296
Fe -34.460261 36.537173 -46.939373
Li -34.460261 36.537172 -48.716275
Li -35.971784 37.028297 -46.144719
Li -35.971784 36.046049 -47.734028
Li -34.460261 34.947863 -47.734027
Li -32.948738 36.046049 -47.734028
Li -32.948738 37.028297 -46.144719
Li -35.394434 35.251395 -46.144718
Li -34.460261 36.537173 -45.162472
Li -33.526089 35.251395 -46.144718
Li -35.394434 37.822951 -47.734028
Li -33.526089 37.822951 -47.734028
Li -34.460261 38.126482 -46.144720
Fe -34.460261 43.269599 -36.046090
Li -35.394434 44.555377 -36.840745
Li -35.971784 42.778476 -36.840744
Li -35.394434 41.983821 -35.251435
Li -35.971784 43.760723 -35.251436
Li -34.460261 41.680289 -36.840744
Li -34.460261 43.269598 -37.822991
Li -33.526089 44.555377 -36.840745
Li -32.948738 42.778476 -36.840744
Li -33.526089 41.983821 -35.251435
Li -34.460261 43.269600 -34.269188
Li -34.460261 44.858908 -35.251436
Li -32.948738 43.760723 -35.251436
Fe -35.971784 56.243324 -22.581253
Li -36.905956 54.957546 -21.786598
Li -35.971784 54.654014 -23.375907
Li -35.037612 54.957546 -21.786598
Li -36.905956 57.529102 -23.375908
Li -35.971784 56.243323 -24.358155
Li -37.483307 55.752201 -23.375907
Li -37.483307 56.734449 -21.786598
Li -35.971784 57.832634 -21.786599
Li -34.460261 55.752201 -23.375907
Li -34.460261 56.734449 -21.786598
Li -35.037612 57.529102 -23.375908
Li -35.971784 56.243325 -20.804351
Fe -47.266088 40.698045 -32.679878
Li -48.777610 40.206921 -33.474533
Li -47.266088 40.698043 -34.456779
Li -47.266088 39.108735 -33.474532
Li -48.200260 41.983823 -33.474533
Li -45.754565 40.206921 -33.474533
Li -46.331915 41.983823 -33.474533
Li -48.200260 39.412267 -31.885223
Li -48.777610 41.189168 -31.885224
Li -47.266088 40.698045 -30.902976
Li -47.266088 42.287354 -31.885224
Li -46.331915 39.412267 -31.885223
Li -45.754565 41.189168 -31.885224
Fe -30.503043 46.144686 -36.046091
Li -31.437216 44.858908 -35.251436
Li -30.503043 44.555377 -36.840745
Li -29.568871 44.858908 -35.251436
Li -32.014566 45.653562 -36.840746
Li -32.014566 46.635810 -35.251437
Li -31.437216 47.430464 -36.840746
Li -30.503043 46.144686 -37.822993
Li -30.503043 46.144688 -34.269189
Li -28.991520 46.635810 -35.251437
Li -28.991520 45.653562 -36.840746
Li -30.503043 47.733996 -35.251437
Li -29.568871 47.430464 -36.840746
Fe -42.374697 36.537173 -46.939373
Li -42.374697 36.537172 -48.716275
Li -43.886220 36.046049 -47.734028
Li -43.886220 37.028297 -46.144719
Li -43.308870 35.251395 -46.144718
Li -42.374697 34.947863 -47.734027
Li -40.863174 36.046049 -47.734028
Li -41.440525 35.251395 -46.144718
Li -40.863174 37.028297 -46.144719
Li -42.374697 36.537173 -45.162472
Li -43.308870 37.822951 -47.734028
Li -42.374697 38.126482 -46.144720
Li -41.440525 37.822951 -47.734028
Fe -48.777610 38.617607 -43.573163
Li -48.777610 37.028297 -44.367817
Li -49.711783 37.331829 -42.778508
Li -47.843438 37.331829 -42.778508
Li -48.777610 38.617606 -45.350065
Li -49.711783 39.903385 -44.367819
Li -47.843438 39.903385 -44.367819
Li -50.289133 38.126483 -44.367818
Li -47.266088 38.126483 -44.367818
Li -50.289133 39.108731 -42.778509
Li -47.266088 39.108731 -42.778509
Li -48.777610 38.617607 -41.796262
Li -48.777610 40.206916 -42.778510
Fe -42.374697 51.591336 -22.581251
Li -43.886220 52.082459 -21.786597
Li -43.308870 50.305558 -21.786596
Li -43.886220 51.100212 -23.375905
Li -42.374697 51.591334 -24.358152
Li -42.374697 50.002026 -23.375905
Li -40.863174 51.100212 -23.375905
Li -40.863174 52.082459 -21.786597
Li -41.440525 50.305558 -21.786596
Li -42.374697 51.591336 -20.804349
Li -43.308870 52.877114 -23.375906
Li -42.374697 53.180645 -21.786596
Li -41.440525 52.877114 -23.375906
Fe -44.820392 44.064249 -46.939376
Li -44.820392 44.064249 -48.716278
Li -46.331915 44.555373 -46.144722
Li -46.331915 43.573125 -47.734031
Li -45.754565 45.350027 -47.734032
Li -44.820392 42.474940 -47.734031
Li -43.308870 43.573125 -47.734031
Li -43.886220 45.350027 -47.734032
Li -43.308870 44.555373 -46.144722
Li -43.886220 42.778471 -46.144721
Li -45.754565 42.778471 -46.144721
Li -44.820392 44.064250 -45.162476
Li -44.820392 45.653558 -46.144723
Fe -55.180524 47.430467 -29.313670
Li -55.180524 45.841157 -30.108324
Li -56.692046 46.939344 -30.108324
Li -55.180524 47.430466 -31.090572
Li -56.114696 48.716245 -30.108326
Li -56.114696 46.144690 -28.519015
Li -56.692046 47.921591 -28.519016
Li -55.180524 47.430468 -27.536768
Li -55.180524 49.019777 -28.519016
Li -54.246351 48.716245 -30.108326
Li -54.246351 46.144690 -28.519015
Li -53.669001 46.939344 -30.108324
Li -53.669001 47.921591 -28.519016
Fe -47.266088 47.430471 -21.786595
Li -47.266088 47.430469 -23.563496
Li -48.200260 48.716249 -22.581250
Li -48.777610 46.939347 -22.581248
Li -47.266088 45.841161 -22.581248
Li -48.200260 46.144693 -20.991939
Li -47.266088 49.019780 -20.991940
Li -48.777610 47.921595 -20.991940
Li -47.266088 47.430471 -20.009692
Li -45.754565 46.939347 -22.581248
Li -46.331915 48.716249 -22.581250
Li -46.331915 46.144693 -20.991939
Li -45.754565 47.921595 -20.991940
Fe -34.460261 51.591339 -15.054175
Li -35.971784 51.100215 -15.848829
Li -35.971784 52.082463 -14.259520
Li -34.460261 50.002029 -15.848829
Li -32.948738 51.100215 -15.848829
Li -34.460261 51.591338 -16.831077
Li -33.526089 50.305561 -14.259520
Li -35.394434 50.305561 -14.259520
Li -32.948738 52.082463 -14.259520
Li -34.460261 51.591339 -13.277273
Li -33.526089 52.877117 -15.848830
Li -35.394434 52.877117 -15.848830
Li -34.460261 53.180648 -14.259521
Fe -38.417479 59.609522 -53.671805
Li -39.929002 59.118398 -54.466460
Li -39.351652 58.323744 -52.877150
Li -39.929002 60.100645 -52.877151
Li -39.351652 60.895299 -54.466460
Li -38.417479 59.609520 -55.448707
Li -36.905956 59.118398 -54.466460
Li -38.417479 58.020212 -54.466459
Li -36.905956 60.100645 -52.877151
Li -38.417479 59.609522 -51.894903
Li -37.483307 58.323744 -52.877150
Li -37.483307 60.895299 -54.466460
Li -38.417479 61.198831 -52.877151
Fe -44.820392 48.225124 -25.152805
Li -46.331915 47.734000 -25.947459
Li -44.820392 46.635815 -25.947460
Li -44.820392 48.225123 -26.929707
Li -43.308870 47.734000 -25.947459
Li -45.754565 49.510902 -25.947461
Li -43.886220 49.510902 -25.947461
Li -45.754565 46.939346 -24.358150
Li -43.886220 46.939346 -24.358150
Li -46.331915 48.716247 -24.358151
Li -44.820392 48.225125 -23.375904
Li -43.308870 48.716247 -24.358151
Li -44.820392 49.814434 -24.358152
Fe -44.820392 39.903389 -36.840743
Li -44.820392 38.314078 -37.635397
Li -45.754565 41.189166 -37.635398
Li -46.331915 39.412264 -37.635398
Li -44.820392 39.903387 -38.617644
Li -43.886220 41.189166 -37.635398
Li -43.308870 39.412264 -37.635398
Li -43.886220 38.617611 -36.046088
Li -45.754565 38.617611 -36.046088
Li -44.820392 39.903389 -35.063841
Li -46.331915 40.394512 -36.046089
Li -43.308870 40.394512 -36.046089
Li -44.820392 41.492698 -36.046089
Fe -42.374697 69.217042 -25.947469
Li -43.308870 67.931265 -25.152815
Li -42.374697 67.627733 -26.742124
Li -41.440525 67.931265 -25.152815
Li -43.308870 70.502820 -26.742125
Li -43.886220 68.725918 -26.742123
Li -42.374697 69.217041 -27.724371
Li -40.863174 68.725918 -26.742123
Li -41.440525 70.502820 -26.742125
Li -43.886220 69.708166 -25.152814
Li -42.374697 69.217043 -24.170568
Li -40.863174 69.708166 -25.152814
Li -42.374697 70.806352 -25.152816
Fe -38.417479 46.144690 -28.519015
Li -39.351652 44.858912 -27.724360
Li -39.351652 47.430467 -29.313670
Li -39.929002 45.653566 -29.313669
Li -39.929002 46.635813 -27.724361
Li -38.417479 44.555380 -29.313669
Li -37.483307 44.858912 -27.724360
Li -38.417479 46.144689 -30.295917
Li -36.905956 45.653566 -29.313669
Li -36.905956 46.635813 -27.724361
Li -38.417479 46.144691 -26.742114
Li -37.483307 47.430467 -29.313670
Li -38.417479 47.734000 -27.724361
Fe -52.734828 50.796672 -43.573169
Li -52.734828 49.207363 -44.367823
Li -53.669001 52.082450 -44.367824
Li -54.246351 50.305548 -44.367824
Li -51.223306 50.305548 -44.367824
Li -51.800656 52.082450 -44.367824
Li -52.734828 50.796671 -45.350071
Li -53.669001 49.510894 -42.778514
Li -54.246351 51.287795 -42.778515
Li -51.800656 49.510894 -42.778514
Li -52.734828 52.385982 -42.778515
Li -51.223306 51.287795 -42.778515
Li -52.734828 50.796673 -41.796267
Fe -24.100130 44.064252 -39.412301
Li -25.034302 45.350030 -40.206956
Li -24.100130 44.064252 -41.189203
Li -23.165958 45.350030 -40.206956
Li -24.100130 42.474943 -40.206955
Li -25.034302 42.778474 -38.617645
Li -23.165958 42.778474 -38.617645
Li -25.611653 43.573128 -40.206955
Li -24.100130 44.064254 -37.635399
Li -25.611653 44.555376 -38.617647
Li -24.100130 45.653562 -38.617647
Li -22.588607 43.573128 -40.206955
Li -22.588607 44.555376 -38.617647
Fe -51.223306 41.983829 -18.420382
Li -52.734828 41.492705 -19.215035
Li -51.223306 40.394519 -19.215035
Li -51.223306 41.983828 -20.197283
Li -52.157478 43.269607 -19.215037
Li -49.711783 41.492705 -19.215035
Li -50.289133 43.269607 -19.215037
Li -50.289133 40.698051 -17.625726
Li -52.157478 40.698051 -17.625726
Li -51.223306 41.983830 -16.643479
Li -52.734828 42.474953 -17.625727
Li -51.223306 43.573138 -17.625727
Li -49.711783 42.474953 -17.625727
Fe -48.777610 62.975743 -28.519023
Li -48.777610 61.386434 -29.313676
Li -48.777610 62.975743 -30.295924
Li -50.289133 62.484619 -29.313677
Li -47.266088 62.484619 -29.313677
Li -49.711783 61.689966 -27.724368
Li -47.843438 61.689966 -27.724368
Li -47.266088 63.466867 -27.724368
Li -50.289133 63.466867 -27.724368
Li -48.777610 62.975744 -26.742121
Li -49.711783 64.261521 -29.313678
Li -47.843438 64.261521 -29.313678
Li -48.777610 64.565053 -27.724369
Fe -28.057348 56.243320 -31.885230
Li -29.568871 55.752196 -32.679884
Li -28.057348 56.243319 -33.662132
Li -28.057348 54.654011 -32.679885
Li -28.991520 57.529098 -32.679886
Li -26.545825 55.752196 -32.679884
Li -27.123176 57.529098 -32.679886
Li -28.991520 54.957543 -31.090576
Li -29.568871 56.734444 -31.090576
Li -28.057348 56.243321 -30.108329
Li -28.057348 57.832630 -31.090577
Li -27.123176 54.957543 -31.090576
Li -26.545825 56.734444 -31.090576
Fe -52.734828 50.796675 -36.046093
Li -52.734828 49.207366 -36.840747
Li -53.669001 52.082453 -36.840748
Li -51.800656 52.082453 -36.840748
Li -52.734828 50.796675 -37.822995
Li -53.669001 49.510897 -35.251438
Li -54.246351 50.305551 -36.840747
Li -54.246351 51.287799 -35.251439
Li -51.223306 50.305551 -36.840747
Li -51.800656 49.510897 -35.251438
Li -52.734828 50.796676 -34.269192
Li -51.223306 51.287799 -35.251439
Li -52.734828 52.385985 -35.251439
Fe -32.014566 44.064252 -39.412301
Li -32.014566 44.064252 -41.189203
Li -32.948738 45.350030 -40.206956
Li -32.014566 42.474943 -40.206955
Li -32.948738 42.778474 -38.617645
Li -33.526089 43.573128 -40.206955
Li -33.526089 44.555376 -38.617647
Li -32.014566 44.064254 -37.635399
Li -31.080394 45.350030 -40.206956
Li -31.080394 42.778474 -38.617645
Li -30.503043 44.555376 -38.617647
Li -30.503043 43.573128 -40.206955
Li -32.014566 45.653562 -38.617647
Fe -35.971784 67.136608 -29.313679
Li -35.971784 65.547298 -30.108333
Li -36.905956 65.850831 -28.519024
Li -35.971784 67.136607 -31.090581
Li -37.483307 67.627732 -28.519024
Li -37.483307 66.645484 -30.108333
Li -35.971784 67.136609 -27.536777
Li -35.037612 65.850831 -28.519024
Li -34.460261 67.627732 -28.519024
Li -34.460261 66.645484 -30.108333
Li -36.905956 68.422386 -30.108334
Li -35.037612 68.422386 -30.108334
Li -35.971784 68.725918 -28.519025
Fe -55.180524 58.323754 -28.519021
Li -55.180524 56.734445 -29.313675
Li -56.692046 57.832630 -29.313675
Li -55.180524 58.323754 -30.295923
Li -56.114696 59.609532 -29.313676
Li -56.114696 57.037977 -27.724366
Li -55.180524 59.913064 -27.724367
Li -56.692046 58.814878 -27.724366
Li -55.180524 58.323755 -26.742119
Li -53.669001 57.832630 -29.313675
Li -54.246351 59.609532 -29.313676
Li -54.246351 57.037977 -27.724366
Li -53.669001 58.814878 -27.724366
Fe -52.734828 61.689966 -25.947466
Li -54.246351 61.198842 -26.742120
Li -53.669001 62.975744 -26.742121
Li -51.223306 61.198842 -26.742120
Li -52.734828 60.100657 -26.742120
Li -52.734828 61.689966 -27.724368
Li -51.800656 62.975744 -26.742121
Li -52.734828 63.279276 -25.152812
Li -54.246351 62.181090 -25.152811
Li -53.669001 60.404188 -25.152811
Li -52.734828 61.689967 -24.170564
Li -51.223306 62.181090 -25.152811
Li -51.800656 60.404188 -25.152811
Fe -47.266088 65.056173 -32.679889
Li -47.266088 63.466864 -33.474543
Li -47.266088 65.056173 -34.456791
Li -48.777610 64.565050 -33.474543
Li -48.200260 66.341951 -33.474544
Li -45.754565 64.565050 -33.474543
Li -46.331915 66.341951 -33.474544
Li -48.200260 63.770396 -31.885234
Li -47.266088 65.056175 -30.902987
Li -48.777610 65.547298 -31.885234
Li -47.266088 66.645484 -31.885235
Li -46.331915 63.770396 -31.885234
Li -45.754565 65.547298 -31.885234
Fe -30.503043 46.144683 -43.573167
Li -31.437216 44.858905 -42.778511
Li -30.503043 44.555374 -44.367821
Li -29.568871 44.858905 -42.778511
Li -32.014566 45.653559 -44.367821
Li -31.437216 47.430461 -44.367822
Li -32.014566 46.635807 -42.778513
Li -30.503043 46.144683 -45.350069
Li -30.503043 47.733993 -42.778514
Li -29.568871 47.430461 -44.367822
Li -28.991520 46.635807 -42.778513
Li -28.991520 45.653559 -44.367821
Li -30.503043 46.144684 -41.796266
Fe -25.611653 59.609529 -36.840752
Li -25.611653 59.609528 -38.617654
Li -27.123176 59.118405 -37.635405
Li -27.123176 60.100652 -36.046098
Li -25.611653 58.020219 -37.635406
Li -24.100130 60.100652 -36.046098
Li -24.100130 59.118405 -37.635405
Li -26.545825 58.323751 -36.046096
Li -24.677480 58.323751 -36.046096
Li -25.611653 59.609530 -35.063850
Li -26.545825 60.895307 -37.635407
Li -24.677480 60.895307 -37.635407
Li -25.611653 61.198839 -36.046098
Fe -44.820392 50.796678 -28.519017
Li -45.754565 52.082456 -29.313673
Li -44.820392 50.796678 -30.295919
Li -44.820392 49.207369 -29.313672
Li -43.886220 52.082456 -29.313673
Li -46.331915 50.305555 -29.313671
Li -45.754565 49.510900 -27.724362
Li -46.331915 51.287802 -27.724363
Li -43.308870 50.305555 -29.313671
Li -44.820392 52.385988 -27.724364
Li -43.886220 49.510900 -27.724362
Li -43.308870 51.287802 -27.724363
Li -44.820392 50.796680 -26.742116
Fe -55.180524 65.056170 -40.206965
Li -55.180524 63.466861 -41.001619
Li -55.180524 65.056170 -41.983867
Li -56.692046 64.565047 -41.001618
Li -56.114696 66.341948 -41.001620
Li -56.114696 63.770393 -39.412310
Li -55.180524 65.056172 -38.430063
Li -56.692046 65.547294 -39.412311
Li -55.180524 66.645480 -39.412311
Li -53.669001 64.565047 -41.001618
Li -54.246351 66.341948 -41.001620
Li -54.246351 63.770393 -39.412310
Li -53.669001 65.547294 -39.412311
Fe -32.014566 44.064260 -22.581248
Li -32.014566 44.064259 -24.358149
Li -33.526089 43.573136 -23.375901
Li -32.014566 42.474950 -23.375901
Li -32.948738 45.350037 -23.375902
Li -33.526089 44.555384 -21.786594
Li -32.948738 42.778482 -21.786592
Li -32.014566 44.064260 -20.804345
Li -32.014566 45.653569 -21.786593
Li -30.503043 43.573136 -23.375901
Li -31.080394 45.350037 -23.375902
Li -30.503043 44.555384 -21.786594
Li -31.080394 42.778482 -21.786592
Fe -35.971784 60.404188 -25.152811
Li -35.971784 58.814879 -25.947465
Li -37.483307 59.913064 -25.947465
Li -34.460261 59.913064 -25.947465
Li -36.905956 59.118411 -24.358156
Li -35.037612 59.118411 -24.358156
Li -36.905956 61.689966 -25.947466
Li -35.971784 60.404188 -26.929713
Li -35.037612 61.689966 -25.947466
Li -37.483307 60.895312 -24.358156
Li -35.971784 60.404189 -23.375909
Li -35.971784 61.993498 -24.358157
Li -34.460261 60.895312 -24.358156
Fe -21.654435 58.323754 -28.519021
Li -23.165958 57.832630 -29.313675
Li -23.165958 58.814878 -27.724366
Li -21.654435 56.734445 -29.313675
Li -21.654435 58.323754 -30.295923
Li -22.588607 59.609532 -29.313676
Li -20.142912 57.832630 -29.313675
Li -20.720262 59.609532 -29.313676
Li -21.654435 59.913064 -27.724367
Li -22.588607 57.037977 -27.724366
Li -21.654435 58.323755 -26.742119
Li -20.142912 58.814878 -27.724366
Li -20.720262 57.037977 -27.724366
Fe -25.611653 70.502816 -36.046102
Li -27.123176 70.011692 -36.840756
Li -25.611653 68.913506 -36.840756
Li -26.545825 71.788593 -36.840757
Li -25.611653 70.502815 -37.823004
Li -24.677480 71.788593 -36.840757
Li -26.545825 69.217038 -35.251447
Li -24.677480 69.217038 -35.251447
Li -27.123176 70.993940 -35.251448
Li -25.611653 70.502816 -34.269200
Li -25.611653 72.092125 -35.251448
Li -24.100130 70.011692 -36.840756
Li -24.100130 70.993940 -35.251448
Fe -42.374697 51.591339 -15.054175
Li -43.886220 51.100215 -15.848829
Li -43.308870 50.305561 -14.259520
Li -43.886220 52.082463 -14.259520
Li -42.374697 50.002029 -15.848829
Li -42.374697 51.591338 -16.831077
Li -40.863174 51.100215 -15.848829
Li -42.374697 51.591339 -13.277273
Li -41.440525 50.305561 -14.259520
Li -40.863174 52.082463 -14.259520
Li -43.308870 52.877117 -15.848830
Li -41.440525 52.877117 -15.848830
Li -42.374697 53.180648 -14.259521
Fe -48.777610 67.136608 -29.313679
Li -50.289133 66.645484 -30.108333
Li -48.777610 65.547298 -30.108333
Li -47.266088 66.645484 -30.108333
Li -48.777610 67.136607 -31.090581
Li -49.711783 65.850831 -28.519024
Li -47.843438 65.850831 -28.519024
Li -50.289133 67.627732 -28.519024
Li -47.266088 67.627732 -28.519024
Li -48.777610 67.136609 -27.536777
Li -49.711783 68.422386 -30.108334
Li -47.843438 68.422386 -30.108334
Li -48.777610 68.725918 -28.519025
Fe -35.971784 56.243317 -39.412306
Li -35.971784 56.243316 -41.189208
Li -35.971784 54.654007 -40.206960
Li -36.905956 54.957540 -38.617651
Li -37.483307 55.752193 -40.206960
Li -36.905956 57.529095 -40.206961
Li -37.483307 56.734440 -38.617652
Li -35.971784 57.832627 -38.617652
Li -35.971784 56.243318 -37.635405
Li -34.460261 55.752193 -40.206960
Li -35.037612 54.957540 -38.617651
Li -35.037612 57.529095 -40.206961
Li -34.460261 56.734440 -38.617652
Fe -55.180524 58.323747 -43.573172
Li -55.180524 58.323747 -45.350074
Li -56.114696 59.609525 -44.367827
Li -55.180524 56.734438 -44.367826
Li -56.692046 57.832623 -44.367827
Li -55.180524 59.913058 -42.778518
Li -56.114696 57.037970 -42.778517
Li -56.692046 58.814871 -42.778518
Li -55.180524 58.323749 -41.796270
Li -54.246351 59.609525 -44.367827
Li -53.669001 57.832623 -44.367827
Li -54.246351 57.037970 -42.778517
Li -53.669001 58.814871 -42.778518
Fe -42.374697 43.269596 -43.573166
Li -43.886220 42.778472 -44.367820
Li -43.308870 44.555374 -44.367821
Li -42.374697 41.680286 -44.367819
Li -40.863174 42.778472 -44.367820
Li -41.440525 44.555374 -44.367821
Li -42.374697 43.269595 -45.350067
Li -43.886220 43.760720 -42.778512
Li -43.308870 41.983818 -42.778510
Li -41.440525 41.983818 -42.778510
Li -42.374697 44.858905 -42.778511
Li -42.374697 43.269596 -41.796263
Li -40.863174 43.760720 -42.778512
Fe -38.417479 67.931261 -32.679890
Li -39.929002 67.440138 -33.474544
Li -39.351652 69.217038 -33.474545
Li -38.417479 66.341951 -33.474544
Li -38.417479 67.931260 -34.456792
Li -36.905956 67.440138 -33.474544
Li -37.483307 69.217038 -33.474545
Li -39.351652 66.645484 -31.885235
Li -39.929002 68.422385 -31.885236
Li -36.905956 68.422385 -31.885236
Li -37.483307 66.645484 -31.885235
Li -38.417479 67.931262 -30.902988
Li -38.417479 69.520571 -31.885236
Fe -46.331915 52.877112 -25.152808
Li -47.843438 52.385989 -25.947462
Li -47.266088 51.591334 -24.358152
Li -46.331915 51.287803 -25.947462
Li -44.820392 52.385989 -25.947462
Li -45.397743 51.591334 -24.358152
Li -47.266088 54.162890 -25.947463
Li -47.843438 53.368237 -24.358153
Li -46.331915 52.877112 -26.929710
Li -45.397743 54.162890 -25.947463
Li -46.331915 54.466422 -24.358154
Li -46.331915 52.877114 -23.375906
Li -44.820392 53.368237 -24.358153
Fe -28.057348 56.243313 -46.939382
Li -28.057348 56.243313 -48.716284
Li -28.057348 54.654004 -47.734036
Li -29.568871 55.752189 -47.734037
Li -29.568871 56.734437 -46.144728
Li -28.991520 54.957536 -46.144727
Li -28.057348 56.243315 -45.162480
Li -28.991520 57.529091 -47.734037
Li -28.057348 57.832623 -46.144728
Li -26.545825 55.752189 -47.734037
Li -27.123176 54.957536 -46.144727
Li -26.545825 56.734437 -46.144728
Li -27.123176 57.529091 -47.734037
Fe -38.417479 63.770390 -46.939386
Li -39.929002 63.279266 -47.734040
Li -39.351652 65.056167 -47.734040
Li -39.351652 62.484612 -46.144730
Li -39.929002 64.261514 -46.144732
Li -38.417479 63.770389 -48.716287
Li -38.417479 62.181080 -47.734039
Li -36.905956 63.279266 -47.734040
Li -37.483307 62.484612 -46.144730
Li -38.417479 63.770390 -45.162483
Li -37.483307 65.056167 -47.734040
Li -38.417479 65.359699 -46.144731
Li -36.905956 64.261514 -46.144732
Fe -38.417479 41.983818 -42.778510
Li -39.929002 41.492694 -43.573165
Li -39.351652 40.698040 -41.983855
Li -39.929002 42.474942 -41.983856
Li -39.351652 43.269596 -43.573166
Li -38.417479 40.394509 -43.573165
Li -36.905956 41.492694 -43.573165
Li -37.483307 40.698040 -41.983855
Li -38.417479 41.983818 -44.555412
Li -37.483307 43.269596 -43.573166
Li -38.417479 43.573128 -41.983857
Li -36.905956 42.474942 -41.983856
Li -38.417479 41.983819 -41.001609
Fe -21.654435 51.591325 -46.939380
Li -21.654435 51.591324 -48.716282
Li -23.165958 51.100201 -47.734034
Li -23.165958 52.082448 -46.144726
Li -21.654435 50.002016 -47.734034
Li -20.720262 50.305548 -46.144725
Li -22.588607 50.305548 -46.144725
Li -20.720262 52.877103 -47.734035
Li -22.588607 52.877103 -47.734035
Li -21.654435 51.591325 -45.162479
Li -20.142912 52.082448 -46.144726
Li -20.142912 51.100201 -47.734034
Li -21.654435 53.180634 -46.144727
Fe -32.014566 39.903392 -29.313667
Li -33.526089 39.412268 -30.108321
Li -32.014566 38.314082 -30.108321
Li -32.014566 39.903390 -31.090569
Li -32.948738 41.189169 -30.108322
Li -32.948738 38.617614 -28.519012
Li -33.526089 40.394515 -28.519013
Li -32.014566 39.903392 -27.536765
Li -32.014566 41.492701 -28.519013
Li -31.080394 41.189169 -30.108322
Li -31.080394 38.617614 -28.519012
Li -30.503043 39.412268 -30.108321
Li -30.503043 40.394515 -28.519013
Fe -30.503043 59.609532 -29.313676
Li -32.014566 59.118408 -30.108330
Li -31.437216 58.323754 -28.519021
Li -32.014566 60.100656 -28.519021
Li -30.503043 59.609531 -31.090578
Li -30.503043 58.020223 -30.108330
Li -28.991520 59.118408 -30.108330
Li -29.568871 58.323754 -28.519021
Li -30.503043 59.609533 -27.536774
Li -28.991520 60.100656 -28.519021
Li -31.437216 60.895310 -30.108331
Li -29.568871 60.895310 -30.108331
Li -30.503043 61.198842 -28.519022
Fe -28.057348 67.136611 -21.786603
Li -29.568871 66.645487 -22.581257
Li -28.057348 65.547302 -22.581257
Li -28.057348 67.136611 -23.563505
Li -28.991520 65.850834 -20.991949
Li -29.568871 67.627735 -20.991949
Li -28.057348 67.136612 -20.009702
Li -26.545825 66.645487 -22.581257
Li -27.123176 65.850834 -20.991949
Li -26.545825 67.627735 -20.991949
Li -28.991520 68.422389 -22.581259
Li -27.123176 68.422389 -22.581259
Li -28.057348 68.725921 -20.991950
Fe -34.460261 62.484622 -21.786601
Li -35.971784 61.993499 -22.581255
Li -34.460261 62.484622 -23.563503
Li -34.460261 60.895313 -22.581255
Li -33.526089 63.770400 -22.581256
Li -35.394434 63.770400 -22.581256
Li -32.948738 61.993499 -22.581255
Li -35.394434 61.198845 -20.991946
Li -35.971784 62.975746 -20.991946
Li -34.460261 62.484624 -20.009699
Li -33.526089 61.198845 -20.991946
Li -32.948738 62.975746 -20.991946
Li -34.460261 64.073932 -20.991947
Fe -42.374697 62.484619 -29.313677
Li -43.308870 63.770397 -30.108332
Li -43.886220 61.993495 -30.108331
Li -43.308870 61.198842 -28.519022
Li -43.886220 62.975743 -28.519023
Li -42.374697 60.895310 -30.108331
Li -42.374697 62.484619 -31.090579
Li -41.440525 63.770397 -30.108332
Li -40.863174 61.993495 -30.108331
Li -42.374697 62.484620 -27.536775
Li -41.440525 61.198842 -28.519022
Li -42.374697 64.073929 -28.519023
Li -40.863174 62.975743 -28.519023
Fe -25.611653 52.877106 -40.206959
Li -27.123176 52.385982 -41.001614
Li -25.611653 52.877105 -41.983861
Li -24.100130 52.385982 -41.001614
Li -25.611653 51.287797 -41.001613
Li -26.545825 51.591328 -39.412304
Li -25.611653 52.877107 -38.430057
Li -24.677480 51.591328 -39.412304
Li -26.545825 54.162884 -41.001614
Li -24.677480 54.162884 -41.001614
Li -27.123176 53.368230 -39.412305
Li -24.100130 53.368230 -39.412305
Li -25.611653 54.466416 -39.412305
Fe -47.266088 58.323751 -36.046096
Li -48.777610 57.832627 -36.840750
Li -47.266088 56.734442 -36.840751
Li -47.266088 58.323750 -37.822998
Li -48.200260 59.609529 -36.840752
Li -48.777610 58.814874 -35.251442
Li -47.266088 59.913061 -35.251443
Li -48.200260 57.037974 -35.251442
Li -47.266088 58.323752 -34.269195
Li -46.331915 59.609529 -36.840752
Li -45.754565 57.832627 -36.840750
Li -46.331915 57.037974 -35.251442
Li -45.754565 58.814874 -35.251442
Fe -30.503043 52.877109 -32.679883
Li -32.014566 52.385985 -33.474537
Li -30.503043 51.287800 -33.474538
Li -30.503043 52.877109 -34.456785
Li -28.991520 52.385985 -33.474537
Li -31.437216 54.162887 -33.474539
Li -29.568871 54.162887 -33.474539
Li -31.437216 51.591331 -31.885228
Li -29.568871 51.591331 -31.885228
Li -32.014566 53.368233 -31.885229
Li -30.503043 52.877110 -30.902982
Li -30.503043 54.466419 -31.885230
Li -28.991520 53.368233 -31.885229
Fe -34.460261 65.056170 -40.206965
Li -34.460261 63.466861 -41.001619
Li -35.971784 64.565047 -41.001618
Li -35.394434 66.341948 -41.001620
Li -34.460261 65.056170 -41.983867
Li -33.526089 66.341948 -41.001620
Li -32.948738 64.565047 -41.001618
Li -35.394434 63.770393 -39.412310
Li -33.526089 63.770393 -39.412310
Li -35.971784 65.547294 -39.412311
Li -34.460261 65.056172 -38.430063
Li -32.948738 65.547294 -39.412311
Li -34.460261 66.645480 -39.412311
Fe -21.654435 47.430471 -21.786595
Li -23.165958 46.939347 -22.581248
Li -23.165958 47.921595 -20.991940
Li -21.654435 47.430469 -23.563496
Li -21.654435 45.841161 -22.581248
Li -20.142912 46.939347 -22.581248
Li -22.588607 48.716249 -22.581250
Li -20.720262 48.716249 -22.581250
Li -22.588607 46.144693 -20.991939
Li -21.654435 49.019780 -20.991940
Li -21.654435 47.430471 -20.009692
Li -20.142912 47.921595 -20.991940
Li -20.720262 46.144693 -20.991939
Fe -28.057348 38.617614 -28.519012
Li -28.991520 37.331836 -27.724357
Li -28.057348 37.028305 -29.313666
Li -27.123176 37.331836 -27.724357
Li -28.057348 38.617613 -30.295913
Li -29.568871 38.126490 -29.313666
Li -28.991520 39.903392 -29.313667
Li -29.568871 39.108737 -27.724358
Li -28.057348 38.617615 -26.742110
Li -28.057348 40.206923 -27.724358
Li -26.545825 39.108737 -27.724358
Li -26.545825 38.126490 -29.313666
Li -27.123176 39.903392 -29.313667
Fe -38.417479 41.983823 -33.474533
Li -39.351652 43.269600 -34.269188
Li -39.929002 41.492698 -34.269188
Li -38.417479 40.394513 -34.269187
Li -38.417479 41.983821 -35.251435
Li -36.905956 41.492698 -34.269188
Li -37.483307 43.269600 -34.269188
Li -39.351652 40.698045 -32.679878
Li -39.929002 42.474946 -32.679879
Li -37.483307 40.698045 -32.679878
Li -38.417479 43.573132 -32.679879
Li -38.417479 41.983823 -31.697631
Li -36.905956 42.474946 -32.679879
Fe -42.374697 58.323762 -11.687968
Li -42.374697 58.323761 -13.464868
Li -43.886220 57.832638 -12.482621
Li -43.308870 57.037984 -10.893312
Li -43.886220 58.814886 -10.893313
Li -43.308870 59.609540 -12.482623
Li -41.440525 59.609540 -12.482623
Li -42.374697 59.913071 -10.893313
Li -41.440525 57.037984 -10.893312
Li -42.374697 56.734452 -12.482620
Li -40.863174 57.832638 -12.482621
Li -40.863174 58.814886 -10.893313
Li -42.374697 58.323762 -9.911065
Fe -42.374697 58.323754 -28.519021
Li -43.886220 57.832630 -29.313675
Li -43.308870 59.609532 -29.313676
Li -42.374697 56.734445 -29.313675
Li -42.374697 58.323754 -30.295923
Li -41.440525 59.609532 -29.313676
Li -40.863174 57.832630 -29.313675
Li -43.308870 57.037977 -27.724366
Li -43.886220 58.814878 -27.724366
Li -42.374697 58.323755 -26.742119
Li -41.440525 57.037977 -27.724366
Li -42.374697 59.913064 -27.724367
Li -40.863174 58.814878 -27.724366
Fe -40.863174 49.510894 -42.778514
Li -40.863174 49.510893 -44.555416
Li -40.863174 47.921585 -43.573168
Li -41.797347 48.225117 -41.983859
Li -39.929002 48.225117 -41.983859
Li -42.374697 49.019770 -43.573168
Li -42.374697 50.002017 -41.983860
Li -41.797347 50.796672 -43.573169
Li -40.863174 49.510895 -41.001612
Li -39.351652 50.002017 -41.983860
Li -39.929002 50.796672 -43.573169
Li -39.351652 49.019770 -43.573168
Li -40.863174 51.100204 -41.983860
Fe -51.223306 52.877109 -32.679883
Li -51.223306 51.287800 -33.474538
Li -52.734828 52.385985 -33.474537
Li -51.223306 52.877109 -34.456785
Li -49.711783 52.385985 -33.474537
Li -52.157478 54.162887 -33.474539
Li -50.289133 54.162887 -33.474539
Li -52.157478 51.591331 -31.885228
Li -50.289133 51.591331 -31.885228
Li -51.223306 52.877110 -30.902982
Li -52.734828 53.368233 -31.885229
Li -51.223306 54.466419 -31.885230
Li -49.711783 53.368233 -31.885229
Fe -35.971784 62.975736 -43.573174
Li -35.971784 61.386427 -44.367829
Li -37.483307 62.484612 -44.367828
Li -35.971784 62.975736 -45.350076
Li -34.460261 62.484612 -44.367828
Li -36.905956 64.261514 -44.367830
Li -35.037612 64.261514 -44.367830
Li -36.905956 61.689959 -42.778520
Li -35.971784 64.565046 -42.778521
Li -37.483307 63.466860 -42.778520
Li -35.971784 62.975737 -41.796273
Li -35.037612 61.689959 -42.778520
Li -34.460261 63.466860 -42.778520
Fe -38.417479 57.037967 -50.305593
Li -39.929002 56.546843 -51.100248
Li -39.351652 55.752189 -49.510938
Li -39.351652 58.323744 -51.100248
Li -39.929002 57.529091 -49.510939
Li -38.417479 55.448657 -51.100247
Li -36.905956 56.546843 -51.100248
Li -37.483307 55.752189 -49.510938
Li -38.417479 57.037966 -52.082495
Li -37.483307 58.323744 -51.100248
Li -38.417479 58.627276 -49.510940
Li -38.417479 57.037967 -48.528692
Li -36.905956 57.529091 -49.510939
Fe -38.417479 63.770400 -22.581256
Li -39.929002 63.279276 -23.375910
Li -39.351652 62.484622 -21.786601
Li -39.351652 65.056178 -23.375912
Li -39.929002 64.261524 -21.786601
Li -38.417479 63.770400 -24.358158
Li -38.417479 62.181091 -23.375911
Li -36.905956 63.279276 -23.375910
Li -37.483307 62.484622 -21.786601
Li -36.905956 64.261524 -21.786601
Li -37.483307 65.056178 -23.375912
Li -38.417479 65.359710 -21.786603
Li -38.417479 63.770401 -20.804355
Fe -44.820392 44.064255 -31.885225
Li -44.820392 44.064255 -33.662127
Li -45.754565 42.778478 -31.090570
Li -44.820392 42.474946 -32.679879
Li -43.886220 42.778478 -31.090570
Li -46.331915 43.573132 -32.679879
Li -46.331915 44.555379 -31.090571
Li -45.754565 45.350033 -32.679880
Li -43.886220 45.350033 -32.679880
Li -44.820392 44.064257 -30.108323
Li -43.308870 43.573132 -32.679879
Li -43.308870 44.555379 -31.090571
Li -44.820392 45.653566 -31.090571
Fe -55.180524 65.056177 -25.152813
Li -55.180524 63.466868 -25.947466
Li -55.180524 65.056177 -26.929714
Li -56.692046 64.565053 -25.947467
Li -56.114696 66.341955 -25.947468
Li -56.114696 63.770400 -24.358158
Li -55.180524 66.645487 -24.358159
Li -56.692046 65.547301 -24.358158
Li -55.180524 65.056178 -23.375912
Li -53.669001 64.565053 -25.947467
Li -54.246351 66.341955 -25.947468
Li -54.246351 63.770400 -24.358158
Li -53.669001 65.547301 -24.358158
Fe -21.654435 65.056173 -32.679889
Li -23.165958 64.565050 -33.474543
Li -21.654435 63.466864 -33.474543
Li -21.654435 65.056173 -34.456791
Li -22.588607 66.341951 -33.474544
Li -20.142912 64.565050 -33.474543
Li -20.720262 66.341951 -33.474544
Li -23.165958 65.547298 -31.885234
Li -22.588607 63.770396 -31.885234
Li -20.720262 63.770396 -31.885234
Li -21.654435 65.056175 -30.902987
Li -20.142912 65.547298 -31.885234
Li -21.654435 66.645484 -31.885235
Fe -52.734828 44.064249 -46.939376
Li -52.734828 44.064249 -48.716278
Li -52.734828 42.474940 -47.734031
Li -51.223306 43.573125 -47.734031
Li -54.246351 43.573125 -47.734031
Li -51.800656 42.778471 -46.144721
Li -53.669001 42.778471 -46.144721
Li -54.246351 44.555373 -46.144722
Li -53.669001 45.350027 -47.734032
Li -52.734828 45.653558 -46.144723
Li -51.223306 44.555373 -46.144722
Li -51.800656 45.350027 -47.734032
Li -52.734828 44.064250 -45.162476
Fe -32.014566 61.689956 -50.305595
Li -32.014566 60.100646 -51.100249
Li -33.526089 62.181079 -49.510941
Li -32.948738 60.404178 -49.510940
Li -33.526089 61.198832 -51.100250
Li -32.948738 62.975733 -51.100250
Li -32.014566 61.689955 -52.082497
Li -31.080394 62.975733 -51.100250
Li -30.503043 61.198832 -51.100250
Li -30.503043 62.181079 -49.510941
Li -31.080394 60.404178 -49.510940
Li -32.014566 61.689956 -48.528693
Li -32.014566 63.279265 -49.510941
Fe -35.971784 62.975739 -36.046099
Li -35.971784 61.386430 -36.840753
Li -35.971784 62.975739 -37.823001
Li -37.483307 62.484616 -36.840753
Li -36.905956 61.689962 -35.251444
Li -37.483307 63.466864 -35.251444
Li -35.971784 62.975741 -34.269197
Li -34.460261 62.484616 -36.840753
Li -35.037612 61.689962 -35.251444
Li -34.460261 63.466864 -35.251444
Li -36.905956 64.261517 -36.840754
Li -35.971784 64.565049 -35.251445
Li -35.037612 64.261517 -36.840754
Fe -40.863174 45.350037 -25.152804
Li -42.374697 44.858913 -25.947458
Li -40.863174 45.350035 -26.929706
Li -40.863174 43.760727 -25.947458
Li -39.351652 44.858913 -25.947458
Li -41.797347 46.635815 -25.947460
Li -39.929002 46.635815 -25.947460
Li -41.797347 44.064259 -24.358149
Li -40.863174 45.350037 -23.375902
Li -39.929002 44.064259 -24.358149
Li -42.374697 45.841161 -24.358150
Li -40.863174 46.939346 -24.358150
Li -39.351652 45.841161 -24.358150
Fe -25.611653 63.770393 -39.412310
Li -27.123176 63.279270 -40.206964
Li -25.611653 63.770392 -41.189211
Li -25.611653 62.181083 -40.206964
Li -24.100130 63.279270 -40.206964
Li -26.545825 65.056170 -40.206965
Li -24.677480 65.056170 -40.206965
Li -26.545825 62.484615 -38.617655
Li -25.611653 63.770394 -37.635408
Li -24.677480 62.484615 -38.617655
Li -25.611653 65.359702 -38.617656
Li -27.123176 64.261517 -38.617656
Li -24.100130 64.261517 -38.617656
Fe -28.057348 62.975743 -28.519023
Li -29.568871 62.484619 -29.313677
Li -28.991520 64.261521 -29.313678
Li -28.057348 62.975743 -30.295924
Li -28.057348 61.386434 -29.313676
Li -28.991520 61.689966 -27.724368
Li -29.568871 63.466867 -27.724368
Li -28.057348 62.975744 -26.742121
Li -26.545825 62.484619 -29.313677
Li -27.123176 64.261521 -29.313678
Li -26.545825 63.466867 -27.724368
Li -27.123176 61.689966 -27.724368
Li -28.057348 64.565053 -27.724369
Fe -28.057348 38.617607 -43.573163
Li -28.057348 37.028297 -44.367817
Li -28.991520 37.331829 -42.778508
Li -27.123176 37.331829 -42.778508
Li -28.057348 38.617606 -45.350065
Li -29.568871 39.108731 -42.778509
Li -28.057348 38.617607 -41.796262
Li -28.991520 39.903385 -44.367819
Li -29.568871 38.126483 -44.367818
Li -28.057348 40.206916 -42.778510
Li -27.123176 39.903385 -44.367819
Li -26.545825 38.126483 -44.367818
Li -26.545825 39.108731 -42.778509
Fe -38.417479 48.716252 -15.054174
Li -39.929002 48.225128 -15.848828
Li -39.351652 47.430474 -14.259519
Li -39.351652 50.002029 -15.848829
Li -39.929002 49.207376 -14.259519
Li -36.905956 48.225128 -15.848828
Li -38.417479 47.126942 -15.848827
Li -38.417479 48.716251 -16.831075
Li -37.483307 47.430474 -14.259519
Li -38.417479 48.716252 -13.277272
Li -37.483307 50.002029 -15.848829
Li -38.417479 50.305561 -14.259520
Li -36.905956 49.207376 -14.259519
Fe -24.100130 54.957546 -21.786598
Li -24.100130 54.957546 -23.563500
Li -24.100130 53.368237 -22.581252
Li -25.611653 54.466423 -22.581252
Li -25.034302 56.243324 -22.581253
Li -23.165958 56.243324 -22.581253
Li -25.611653 55.448671 -20.991943
Li -25.034302 53.671769 -20.991943
Li -24.100130 54.957548 -20.009696
Li -23.165958 53.671769 -20.991943
Li -24.100130 56.546857 -20.991944
Li -22.588607 54.466423 -22.581252
Li -22.588607 55.448671 -20.991943
Fe -35.971784 38.617611 -36.046088
Li -35.971784 37.028301 -36.840741
Li -35.971784 38.617609 -37.822989
Li -37.483307 38.126486 -36.840742
Li -36.905956 37.331833 -35.251432
Li -37.483307 39.108734 -35.251434
Li -35.971784 38.617611 -34.269185
Li -36.905956 39.903389 -36.840743
Li -35.971784 40.206920 -35.251433
Li -35.037612 39.903389 -36.840743
Li -34.460261 38.126486 -36.840742
Li -35.037612 37.331833 -35.251432
Li -34.460261 39.108734 -35.251434
Fe -38.417479 37.822958 -32.679877
Li -39.929002 37.331834 -33.474531
Li -39.351652 39.108735 -33.474532
Li -38.417479 36.233648 -33.474531
Li -38.417479 37.822956 -34.456778
Li -36.905956 37.331834 -33.474531
Li -37.483307 39.108735 -33.474532
Li -39.351652 36.537180 -31.885222
Li -39.929002 38.314081 -31.885223
Li -37.483307 36.537180 -31.885222
Li -38.417479 37.822958 -30.902975
Li -36.905956 38.314081 -31.885223
Li -38.417479 39.412267 -31.885223
Fe -34.460261 62.484619 -29.313677
Li -35.971784 61.993495 -30.108331
Li -35.394434 63.770397 -30.108332
Li -35.394434 61.198842 -28.519022
Li -35.971784 62.975743 -28.519023
Li -34.460261 60.895310 -30.108331
Li -34.460261 62.484619 -31.090579
Li -33.526089 63.770397 -30.108332
Li -32.948738 61.993495 -30.108331
Li -34.460261 64.073929 -28.519023
Li -33.526089 61.198842 -28.519022
Li -32.948738 62.975743 -28.519023
Li -34.460261 62.484620 -27.536775
Fe -32.014566 68.422382 -39.412312
Li -33.526089 67.931258 -40.206966
Li -32.014566 66.833072 -40.206966
Li -32.948738 67.136604 -38.617657
Li -30.503043 67.931258 -40.206966
Li -31.080394 67.136604 -38.617657
Li -32.948738 69.708159 -40.206967
Li -32.014566 68.422381 -41.189214
Li -31.080394 69.708159 -40.206967
Li -33.526089 68.913506 -38.617657
Li -32.014566 68.422382 -37.635410
Li -32.014566 70.011691 -38.617658
Li -30.503043 68.913506 -38.617657
Fe -32.014566 50.796675 -36.046093
Li -32.014566 50.796675 -37.822995
Li -32.948738 52.082453 -36.840748
Li -33.526089 50.305551 -36.840747
Li -32.948738 49.510897 -35.251438
Li -32.014566 50.796676 -34.269192
Li -32.014566 49.207366 -36.840747
Li -33.526089 51.287799 -35.251439
Li -32.014566 52.385985 -35.251439
Li -31.080394 52.082453 -36.840748
Li -30.503043 50.305551 -36.840747
Li -31.080394 49.510897 -35.251438
Li -30.503043 51.287799 -35.251439
Fe -35.971784 49.510905 -18.420385
Li -35.971784 47.921595 -19.215039
Li -36.905956 48.225127 -17.625730
Li -35.037612 48.225127 -17.625730
Li -35.971784 49.510904 -20.197286
Li -36.905956 50.796683 -19.215040
Li -37.483307 49.019781 -19.215039
Li -35.971784 51.100214 -17.625731
Li -37.483307 50.002029 -17.625730
Li -34.460261 49.019781 -19.215039
Li -34.460261 50.002029 -17.625730
Li -35.037612 50.796683 -19.215040
Li -35.971784 49.510905 -16.643483
Fe -40.863174 56.243317 -39.412306
Li -40.863174 54.654007 -40.206960
Li -42.374697 55.752193 -40.206960
Li -40.863174 56.243316 -41.189208
Li -39.351652 55.752193 -40.206960
Li -41.797347 57.529095 -40.206961
Li -39.929002 57.529095 -40.206961
Li -41.797347 54.957540 -38.617651
Li -39.929002 54.957540 -38.617651
Li -40.863174 56.243318 -37.635405
Li -42.374697 56.734440 -38.617652
Li -39.351652 56.734440 -38.617652
Li -40.863174 57.832627 -38.617652
Fe -28.057348 52.082459 -21.786597
Li -29.568871 51.591336 -22.581251
Li -28.057348 52.082459 -23.563498
Li -28.057348 50.493150 -22.581250
Li -28.991520 50.796681 -20.991942
Li -28.057348 52.082460 -20.009695
Li -29.568871 52.573584 -20.991942
Li -26.545825 51.591336 -22.581251
Li -26.545825 52.573584 -20.991942
Li -27.123176 50.796681 -20.991942
Li -28.991520 53.368237 -22.581252
Li -28.057348 53.671769 -20.991943
Li -27.123176 53.368237 -22.581252
Fe -55.180524 58.323751 -36.046096
Li -55.180524 58.323750 -37.822998
Li -56.692046 57.832627 -36.840750
Li -56.114696 59.609529 -36.840752
Li -55.180524 56.734442 -36.840751
Li -56.114696 57.037974 -35.251442
Li -55.180524 59.913061 -35.251443
Li -56.692046 58.814874 -35.251442
Li -55.180524 58.323752 -34.269195
Li -53.669001 57.832627 -36.840750
Li -54.246351 59.609529 -36.840752
Li -54.246351 57.037974 -35.251442
Li -53.669001 58.814874 -35.251442
Fe -40.863174 60.404182 -40.206962
Li -42.374697 59.913057 -41.001617
Li -40.863174 58.814872 -41.001617
Li -39.351652 59.913057 -41.001617
Li -41.797347 61.689960 -41.001618
Li -40.863174 60.404181 -41.983864
Li -39.929002 61.689960 -41.001618
Li -41.797347 59.118405 -39.412308
Li -39.929002 59.118405 -39.412308
Li -40.863174 60.404183 -38.430061
Li -42.374697 60.895305 -39.412308
Li -39.351652 60.895305 -39.412308
Li -40.863174 61.993492 -39.412309
Fe -44.820392 65.850827 -36.046100
Li -46.331915 65.359704 -36.840754
Li -44.820392 64.261517 -36.840754
Li -43.308870 65.359704 -36.840754
Li -45.754565 67.136604 -36.840755
Li -44.820392 65.850826 -37.823002
Li -43.886220 67.136604 -36.840755
Li -45.754565 64.565049 -35.251445
Li -43.886220 64.565049 -35.251445
Li -44.820392 65.850828 -34.269198
Li -46.331915 66.341951 -35.251446
Li -44.820392 67.440137 -35.251446
Li -43.308870 66.341951 -35.251446
Fe -42.374697 65.056173 -32.679889
Li -42.374697 63.466864 -33.474543
Li -43.886220 64.565050 -33.474543
Li -43.308870 66.341951 -33.474544
Li -42.374697 65.056173 -34.456791
Li -41.440525 66.341951 -33.474544
Li -40.863174 64.565050 -33.474543
Li -43.308870 63.770396 -31.885234
Li -41.440525 63.770396 -31.885234
Li -43.886220 65.547298 -31.885234
Li -42.374697 65.056175 -30.902987
Li -42.374697 66.645484 -31.885235
Li -40.863174 65.547298 -31.885234
Fe -32.014566 61.689966 -25.947466
Li -32.014566 60.100657 -26.742120
Li -32.014566 61.689966 -27.724368
Li -33.526089 61.198842 -26.742120
Li -32.948738 62.975744 -26.742121
Li -32.014566 63.279276 -25.152812
Li -33.526089 62.181090 -25.152811
Li -32.948738 60.404188 -25.152811
Li -32.014566 61.689967 -24.170564
Li -31.080394 62.975744 -26.742121
Li -30.503043 61.198842 -26.742120
Li -31.080394 60.404188 -25.152811
Li -30.503043 62.181090 -25.152811
Fe -51.223306 52.877112 -25.152808
Li -51.223306 51.287803 -25.947462
Li -52.734828 52.385989 -25.947462
Li -49.711783 52.385989 -25.947462
Li -52.157478 51.591334 -24.358152
Li -50.289133 51.591334 -24.358152
Li -51.223306 52.877112 -26.929710
Li -52.157478 54.162890 -25.947463
Li -50.289133 54.162890 -25.947463
Li -52.734828 53.368237 -24.358153
Li -51.223306 54.466422 -24.358154
Li -51.223306 52.877114 -23.375906
Li -49.711783 53.368237 -24.358153
Fe -35.971784 38.617607 -43.573163
Li -35.971784 37.028297 -44.367817
Li -36.905956 37.331829 -42.778508
Li -35.037612 37.331829 -42.778508
Li -35.971784 38.617606 -45.350065
Li -37.483307 38.126483 -44.367818
Li -36.905956 39.903385 -44.367819
Li -35.971784 40.206916 -42.778510
Li -35.971784 38.617607 -41.796262
Li -37.483307 39.108731 -42.778509
Li -35.037612 39.903385 -44.367819
Li -34.460261 38.126483 -44.367818
Li -34.460261 39.108731 -42.778509
Fe -34.460261 51.591325 -46.939380
Li -34.460261 51.591324 -48.716282
Li -35.971784 51.100201 -47.734034
Li -35.971784 52.082448 -46.144726
Li -35.394434 52.877103 -47.734035
Li -35.394434 50.305548 -46.144725
Li -33.526089 52.877103 -47.734035
Li -34.460261 50.002016 -47.734034
Li -33.526089 50.305548 -46.144725
Li -34.460261 51.591325 -45.162479
Li -32.948738 51.100201 -47.734034
Li -32.948738 52.082448 -46.144726
Li -34.460261 53.180634 -46.144727
Fe -42.374697 51.591328 -39.412304
Li -42.374697 51.591328 -41.189206
Li -43.308870 50.305551 -38.617649
Li -43.886220 51.100204 -40.206959
Li -43.308870 52.877106 -40.206959
Li -43.886220 52.082452 -38.617650
Li -41.440525 52.877106 -40.206959
Li -42.374697 51.591329 -37.635402
Li -42.374697 50.002019 -40.206958
Li -41.440525 50.305551 -38.617649
Li -40.863174 51.100204 -40.206959
Li -40.863174 52.082452 -38.617650
Li -42.374697 53.180638 -38.617650
Fe -42.374697 54.162894 -18.420387
Li -42.374697 52.573584 -19.215040
Li -43.886220 53.671770 -19.215041
Li -43.308870 55.448671 -19.215042
Li -43.886220 54.654018 -17.625732
Li -43.308870 52.877116 -17.625732
Li -42.374697 55.752203 -17.625733
Li -41.440525 52.877116 -17.625732
Li -42.374697 54.162893 -20.197288
Li -41.440525 55.448671 -19.215042
Li -40.863174 53.671770 -19.215041
Li -40.863174 54.654018 -17.625732
Li -42.374697 54.162894 -16.643485
Fe -25.611653 35.251403 -29.313665
Li -25.611653 35.251402 -31.090566
Li -27.123176 34.760279 -30.108320
Li -25.611653 33.662093 -30.108319
Li -26.545825 36.537181 -30.108320
Li -24.677480 36.537181 -30.108320
Li -26.545825 33.965625 -28.519010
Li -24.677480 33.965625 -28.519010
Li -25.611653 35.251404 -27.536763
Li -27.123176 35.742527 -28.519011
Li -25.611653 36.840712 -28.519011
Li -24.100130 34.760279 -30.108320
Li -24.100130 35.742527 -28.519011
Fe -51.223306 41.983826 -25.947457
Li -52.734828 41.492702 -26.742111
Li -51.223306 40.394516 -26.742111
Li -51.223306 41.983825 -27.724359
Li -52.157478 43.269603 -26.742112
Li -49.711783 41.492702 -26.742111
Li -50.289133 43.269603 -26.742112
Li -52.157478 40.698048 -25.152802
Li -52.734828 42.474950 -25.152803
Li -51.223306 41.983826 -24.170555
Li -51.223306 43.573135 -25.152803
Li -50.289133 40.698048 -25.152802
Li -49.711783 42.474950 -25.152803
Fe -38.417479 59.609529 -36.840752
Li -39.929002 60.100652 -36.046098
Li -39.929002 59.118405 -37.635405
Li -39.351652 58.323751 -36.046096
Li -39.351652 60.895307 -37.635407
Li -38.417479 59.609528 -38.617654
Li -38.417479 58.020219 -37.635406
Li -36.905956 59.118405 -37.635405
Li -37.483307 58.323751 -36.046096
Li -38.417479 59.609530 -35.063850
Li -37.483307 60.895307 -37.635407
Li -38.417479 61.198839 -36.046098
Li -36.905956 60.100652 -36.046098
Fe -32.014566 37.331840 -18.420379
Li -33.526089 36.840717 -19.215033
Li -32.014566 35.742530 -19.215033
Li -32.014566 37.331839 -20.197281
Li -30.503043 36.840717 -19.215033
Li -32.948738 38.617618 -19.215035
Li -31.080394 38.617618 -19.215035
Li -32.948738 36.046063 -17.625724
Li -32.014566 37.331841 -16.643477
Li -31.080394 36.046063 -17.625724
Li -33.526089 37.822964 -17.625725
Li -30.503043 37.822964 -17.625725
Li -32.014566 38.921150 -17.625725
Fe -34.460261 58.323751 -36.046096
Li -35.971784 57.832627 -36.840750
Li -35.394434 59.609529 -36.840752
Li -34.460261 58.323750 -37.822998
Li -34.460261 56.734442 -36.840751
Li -32.948738 57.832627 -36.840750
Li -33.526089 59.609529 -36.840752
Li -35.394434 57.037974 -35.251442
Li -35.971784 58.814874 -35.251442
Li -34.460261 58.323752 -34.269195
Li -34.460261 59.913061 -35.251443
Li -33.526089 57.037974 -35.251442
Li -32.948738 58.814874 -35.251442
Fe -32.014566 65.850827 -36.046100
Li -33.526089 65.359704 -36.840754
Li -32.014566 64.261517 -36.840754
Li -32.014566 65.850826 -37.823002
Li -32.948738 67.136604 -36.840755
Li -32.014566 65.850828 -34.269198
Li -32.948738 64.565049 -35.251445
Li -33.526089 66.341951 -35.251446
Li -32.014566 67.440137 -35.251446
Li -30.503043 65.359704 -36.840754
Li -31.080394 67.136604 -36.840755
Li -31.080394 64.565049 -35.251445
Li -30.503043 66.341951 -35.251446
Fe -55.180524 47.430464 -36.840746
Li -55.180524 45.841154 -37.635400
Li -56.692046 46.939340 -37.635401
Li -55.180524 47.430463 -38.617648
Li -56.114696 48.716242 -37.635401
Li -56.114696 46.144686 -36.046091
Li -55.180524 47.430465 -35.063844
Li -56.692046 47.921588 -36.046092
Li -55.180524 49.019773 -36.046092
Li -53.669001 46.939340 -37.635401
Li -54.246351 48.716242 -37.635401
Li -54.246351 46.144686 -36.046091
Li -53.669001 47.921588 -36.046092
Fe -34.460261 47.430464 -36.840746
Li -35.971784 46.939340 -37.635401
Li -35.394434 48.716242 -37.635401
Li -35.394434 46.144686 -36.046091
Li -35.971784 47.921588 -36.046092
Li -34.460261 47.430463 -38.617648
Li -34.460261 45.841154 -37.635400
Li -32.948738 46.939340 -37.635401
Li -33.526089 48.716242 -37.635401
Li -33.526089 46.144686 -36.046091
Li -34.460261 49.019773 -36.046092
Li -34.460261 47.430465 -35.063844
Li -32.948738 47.921588 -36.046092
Fe -35.971784 42.778479 -29.313668
Li -35.971784 41.189169 -30.108322
Li -37.483307 42.287355 -30.108323
Li -35.971784 42.778478 -31.090570
Li -36.905956 44.064257 -30.108323
Li -37.483307 43.269602 -28.519014
Li -36.905956 41.492701 -28.519013
Li -35.971784 42.778479 -27.536766
Li -35.971784 44.367788 -28.519014
Li -34.460261 42.287355 -30.108323
Li -35.037612 44.064257 -30.108323
Li -35.037612 41.492701 -28.519013
Li -34.460261 43.269602 -28.519014
Fe -42.374697 43.269599 -36.046090
Li -43.886220 42.778476 -36.840744
Li -43.308870 44.555377 -36.840745
Li -43.308870 41.983821 -35.251435
Li -43.886220 43.760723 -35.251436
Li -42.374697 43.269598 -37.822991
Li -42.374697 41.680289 -36.840744
Li -41.440525 44.555377 -36.840745
Li -40.863174 42.778476 -36.840744
Li -41.440525 41.983821 -35.251435
Li -42.374697 43.269600 -34.269188
Li -42.374697 44.858908 -35.251436
Li -40.863174 43.760723 -35.251436
Fe -25.611653 46.144683 -43.573167
Li -25.611653 44.555374 -44.367821
Li -24.677480 44.858905 -42.778511
Li -26.545825 44.858905 -42.778511
Li -25.611653 46.144683 -45.350069
Li -26.545825 47.430461 -44.367822
Li -27.123176 45.653559 -44.367821
Li -24.677480 47.430461 -44.367822
Li -24.100130 45.653559 -44.367821
Li -27.123176 46.635807 -42.778513
Li -25.611653 46.144684 -41.796266
Li -24.100130 46.635807 -42.778513
Li -25.611653 47.733993 -42.778514
Fe -29.568871 65.056173 -32.679889
Li -29.568871 63.466864 -33.474543
Li -31.080394 64.565050 -33.474543
Li -29.568871 65.056173 -34.456791
Li -28.057348 64.565050 -33.474543
Li -30.503043 66.341951 -33.474544
Li -28.634698 66.341951 -33.474544
Li -30.503043 63.770396 -31.885234
Li -28.634698 63.770396 -31.885234
Li -31.080394 65.547298 -31.885234
Li -28.057348 65.547298 -31.885234
Li -29.568871 65.056175 -30.902987
Li -29.568871 66.645484 -31.885235
Fe -51.223306 52.877106 -40.206959
Li -51.223306 52.877105 -41.983861
Li -52.734828 52.385982 -41.001614
Li -51.223306 51.287797 -41.001613
Li -49.711783 52.385982 -41.001614
Li -52.157478 51.591328 -39.412304
Li -51.223306 52.877107 -38.430057
Li -50.289133 51.591328 -39.412304
Li -52.157478 54.162884 -41.001614
Li -50.289133 54.162884 -41.001614
Li -52.734828 53.368230 -39.412305
Li -51.223306 54.466416 -39.412305
Li -49.711783 53.368230 -39.412305
Fe -52.734828 44.064252 -39.412301
Li -52.734828 44.064252 -41.189203
Li -51.800656 45.350030 -40.206956
Li -53.669001 45.350030 -40.206956
Li -53.669001 42.778474 -38.617645
Li -54.246351 43.573128 -40.206955
Li -54.246351 44.555376 -38.617647
Li -51.223306 44.555376 -38.617647
Li -51.223306 43.573128 -40.206955
Li -52.734828 42.474943 -40.206955
Li -51.800656 42.778474 -38.617645
Li -52.734828 44.064254 -37.635399
Li -52.734828 45.653562 -38.617647
Fe -42.374697 47.430467 -29.313670
Li -43.886220 46.939344 -30.108324
Li -43.308870 48.716245 -30.108326
Li -43.308870 46.144690 -28.519015
Li -43.886220 47.921591 -28.519016
Li -42.374697 45.841157 -30.108324
Li -42.374697 47.430466 -31.090572
Li -41.440525 48.716245 -30.108326
Li -40.863174 46.939344 -30.108324
Li -41.440525 46.144690 -28.519015
Li -42.374697 47.430468 -27.536768
Li -42.374697 49.019777 -28.519016
Li -40.863174 47.921591 -28.519016
Fe -38.417479 48.716249 -22.581250
Li -39.929002 48.225125 -23.375904
Li -39.351652 47.430471 -21.786595
Li -39.351652 50.002026 -23.375905
Li -39.929002 49.207373 -21.786595
Li -38.417479 47.126939 -23.375904
Li -36.905956 48.225125 -23.375904
Li -37.483307 47.430471 -21.786595
Li -38.417479 48.716247 -24.358151
Li -37.483307 50.002026 -23.375905
Li -38.417479 50.305558 -21.786596
Li -36.905956 49.207373 -21.786595
Li -38.417479 48.716249 -20.804348
Fe -46.331915 52.877109 -32.679883
Li -47.843438 52.385985 -33.474537
Li -46.331915 51.287800 -33.474538
Li -46.331915 52.877109 -34.456785
Li -44.820392 52.385985 -33.474537
Li -47.266088 54.162887 -33.474539
Li -45.397743 54.162887 -33.474539
Li -47.266088 51.591331 -31.885228
Li -45.397743 51.591331 -31.885228
Li -47.843438 53.368233 -31.885229
Li -46.331915 52.877110 -30.902982
Li -46.331915 54.466419 -31.885230
Li -44.820392 53.368233 -31.885229
Fe -38.417479 74.663687 -21.786607
Li -39.929002 74.172564 -22.581261
Li -39.351652 75.949465 -22.581262
Li -39.351652 73.377910 -20.991952
Li -39.929002 75.154812 -20.991952
Li -36.905956 74.172564 -22.581261
Li -38.417479 74.663687 -23.563508
Li -38.417479 73.074378 -22.581260
Li -37.483307 75.949465 -22.581262
Li -36.905956 75.154812 -20.991952
Li -37.483307 73.377910 -20.991952
Li -38.417479 74.663688 -20.009705
Li -38.417479 76.252997 -20.991953
Fe -40.863174 62.975736 -43.573174
Li -42.374697 62.484612 -44.367828
Li -40.863174 62.975736 -45.350076
Li -40.863174 61.386427 -44.367829
Li -39.351652 62.484612 -44.367828
Li -41.797347 61.689959 -42.778520
Li -42.374697 63.466860 -42.778520
Li -39.929002 61.689959 -42.778520
Li -39.351652 63.466860 -42.778520
Li -40.863174 62.975737 -41.796273
Li -41.797347 64.261514 -44.367830
Li -39.929002 64.261514 -44.367830
Li -40.863174 64.565046 -42.778521
Fe -24.100130 48.225117 -40.206957
Li -25.611653 47.733993 -41.001612
Li -24.100130 48.225117 -41.983859
Li -24.100130 46.635808 -41.001611
Li -23.165958 49.510895 -41.001612
Li -25.034302 49.510895 -41.001612
Li -23.165958 46.939339 -39.412302
Li -25.034302 46.939339 -39.412302
Li -25.611653 48.716241 -39.412303
Li -24.100130 48.225118 -38.430056
Li -24.100130 49.814427 -39.412304
Li -22.588607 47.733993 -41.001612
Li -22.588607 48.716241 -39.412303
Fe -28.057348 49.510902 -25.947461
Li -28.057348 47.921592 -26.742114
Li -29.568871 49.019778 -26.742114
Li -28.057348 49.510900 -27.724362
Li -29.568871 50.002025 -25.152807
Li -28.991520 50.796680 -26.742116
Li -26.545825 49.019778 -26.742114
Li -27.123176 50.796680 -26.742116
Li -26.545825 50.002025 -25.152807
Li -28.991520 48.225124 -25.152805
Li -28.057348 49.510902 -24.170558
Li -28.057348 51.100211 -25.152806
Li -27.123176 48.225124 -25.152805
Fe -38.417479 48.716238 -46.939379
Li -39.929002 49.207361 -46.144725
Li -39.929002 48.225113 -47.734033
Li -39.351652 47.430460 -46.144723
Li -39.351652 50.002016 -47.734034
Li -38.417479 48.716237 -48.716281
Li -36.905956 48.225113 -47.734033
Li -38.417479 47.126928 -47.734033
Li -36.905956 49.207361 -46.144725
Li -37.483307 47.430460 -46.144723
Li -38.417479 48.716239 -45.162477
Li -37.483307 50.002016 -47.734034
Li -38.417479 50.305548 -46.144725
Fe -17.697217 46.144686 -36.046091
Li -18.631389 44.858908 -35.251436
Li -17.697217 44.555377 -36.840745
Li -16.763044 44.858908 -35.251436
Li -19.208740 45.653562 -36.840746
Li -19.208740 46.635810 -35.251437
Li -18.631389 47.430464 -36.840746
Li -17.697217 46.144686 -37.822993
Li -16.185694 46.635810 -35.251437
Li -16.185694 45.653562 -36.840746
Li -17.697217 46.144688 -34.269189
Li -16.763044 47.430464 -36.840746
Li -17.697217 47.733996 -35.251437
Fe -44.820392 72.583250 -32.679893
Li -46.331915 72.092126 -33.474547
Li -44.820392 72.583249 -34.456794
Li -43.308870 72.092126 -33.474547
Li -44.820392 70.993940 -33.474546
Li -43.886220 73.869027 -33.474547
Li -45.754565 73.869027 -33.474547
Li -45.754565 71.297472 -31.885237
Li -44.820392 72.583251 -30.902991
Li -43.886220 71.297472 -31.885237
Li -46.331915 73.074374 -31.885238
Li -44.820392 74.172559 -31.885238
Li -43.308870 73.074374 -31.885238
Fe -32.014566 48.225124 -25.152805
Li -32.014566 46.635815 -25.947460
Li -33.526089 47.734000 -25.947459
Li -32.014566 48.225123 -26.929707
Li -32.948738 49.510902 -25.947461
Li -32.948738 46.939346 -24.358150
Li -32.014566 48.225125 -23.375904
Li -33.526089 48.716247 -24.358151
Li -32.014566 49.814434 -24.358152
Li -30.503043 47.734000 -25.947459
Li -31.080394 49.510902 -25.947461
Li -31.080394 46.939346 -24.358150
Li -30.503043 48.716247 -24.358151
Fe -35.971784 45.350033 -32.679880
Li -37.483307 44.858910 -33.474534
Li -35.971784 43.760723 -33.474534
Li -34.460261 44.858910 -33.474534
Li -36.905956 46.635811 -33.474535
Li -35.971784 45.350032 -34.456782
Li -35.037612 46.635811 -33.474535
Li -36.905956 44.064255 -31.885225
Li -35.971784 45.350034 -30.902978
Li -35.037612 44.064255 -31.885225
Li -37.483307 45.841157 -31.885226
Li -35.971784 46.939343 -31.885226
Li -34.460261 45.841157 -31.885226
Fe -28.057348 49.510891 -50.305589
Li -29.568871 49.019766 -51.100244
Li -28.991520 48.225114 -49.510935
Li -28.991520 50.796669 -51.100245
Li -29.568871 50.002014 -49.510935
Li -28.057348 49.510890 -52.082491
Li -28.057348 47.921581 -51.100244
Li -27.123176 48.225114 -49.510935
Li -26.545825 49.019766 -51.100244
Li -27.123176 50.796669 -51.100245
Li -28.057348 49.510891 -48.528689
Li -28.057348 51.100200 -49.510936
Li -26.545825 50.002014 -49.510935
Fe -21.654435 40.698048 -25.152802
Li -23.165958 40.206924 -25.947456
Li -23.165958 41.189172 -24.358148
Li -21.654435 39.108739 -25.947456
Li -21.654435 40.698047 -26.929704
Li -20.142912 40.206924 -25.947456
Li -22.588607 41.983826 -25.947457
Li -20.720262 41.983826 -25.947457
Li -21.654435 40.698049 -23.375900
Li -22.588607 39.412270 -24.358147
Li -20.720262 39.412270 -24.358147
Li -20.142912 41.189172 -24.358148
Li -21.654435 42.287357 -24.358148
Fe -35.971784 42.778482 -21.786592
Li -35.971784 41.189173 -22.581247
Li -36.905956 41.492704 -20.991937
Li -35.037612 41.492704 -20.991937
Li -35.971784 42.778481 -23.563494
Li -37.483307 42.287358 -22.581246
Li -36.905956 44.064260 -22.581248
Li -34.460261 42.287358 -22.581246
Li -35.037612 44.064260 -22.581248
Li -35.971784 42.778483 -20.009691
Li -37.483307 43.269606 -20.991938
Li -35.971784 44.367791 -20.991938
Li -34.460261 43.269606 -20.991938
Fe -32.014566 61.689959 -42.778520
Li -32.014566 60.100649 -43.573173
Li -32.948738 60.404181 -41.983864
Li -32.014566 61.689958 -44.555421
Li -32.948738 62.975736 -43.573174
Li -33.526089 61.198835 -43.573174
Li -33.526089 62.181083 -41.983866
Li -32.014566 61.689960 -41.001618
Li -32.014566 63.279268 -41.983865
Li -31.080394 60.404181 -41.983864
Li -30.503043 61.198835 -43.573174
Li -31.080394 62.975736 -43.573174
Li -30.503043 62.181083 -41.983866
Fe -59.137742 59.609532 -29.313676
Li -60.649264 59.118408 -30.108330
Li -59.137742 59.609531 -31.090578
Li -59.137742 58.020223 -30.108330
Li -57.626219 59.118408 -30.108330
Li -59.137742 59.609533 -27.536774
Li -58.203569 58.323754 -28.519021
Li -60.071914 58.323754 -28.519021
Li -60.649264 60.100656 -28.519021
Li -58.203569 60.895310 -30.108331
Li -60.071914 60.895310 -30.108331
Li -59.137742 61.198842 -28.519022
Li -57.626219 60.100656 -28.519021
Fe -40.863174 62.975739 -36.046099
Li -40.863174 61.386430 -36.840753
Li -42.374697 62.484616 -36.840753
Li -39.351652 62.484616 -36.840753
Li -40.863174 62.975739 -37.823001
Li -41.797347 61.689962 -35.251444
Li -42.374697 63.466864 -35.251444
Li -39.929002 61.689962 -35.251444
Li -40.863174 62.975741 -34.269197
Li -39.351652 63.466864 -35.251444
Li -41.797347 64.261517 -36.840754
Li -39.929002 64.261517 -36.840754
Li -40.863174 64.565049 -35.251445
Fe -42.374697 54.162879 -50.305592
Li -43.308870 52.877102 -49.510937
Li -42.374697 52.573570 -51.100246
Li -41.440525 52.877102 -49.510937
Li -43.886220 53.671755 -51.100246
Li -43.308870 55.448657 -51.100247
Li -43.886220 54.654003 -49.510938
Li -42.374697 54.162879 -52.082494
Li -41.440525 55.448657 -51.100247
Li -40.863174 53.671755 -51.100246
Li -42.374697 55.752189 -49.510938
Li -42.374697 54.162881 -48.528690
Li -40.863174 54.654003 -49.510938
Fe -32.014566 44.064249 -46.939376
Li -32.014566 44.064249 -48.716278
Li -33.526089 43.573125 -47.734031
Li -33.526089 44.555373 -46.144722
Li -32.948738 45.350027 -47.734032
Li -32.014566 42.474940 -47.734031
Li -32.948738 42.778471 -46.144721
Li -32.014566 44.064250 -45.162476
Li -30.503043 43.573125 -47.734031
Li -30.503043 44.555373 -46.144722
Li -31.080394 45.350027 -47.734032
Li -31.080394 42.778471 -46.144721
Li -32.014566 45.653558 -46.144723
Fe -32.014566 68.422379 -46.939388
Li -32.948738 69.708156 -47.734043
Li -32.014566 68.422377 -48.716289
Li -31.080394 69.708156 -47.734043
Li -33.526089 67.931255 -47.734042
Li -32.948738 67.136601 -46.144733
Li -32.014566 66.833069 -47.734042
Li -31.080394 67.136601 -46.144733
Li -30.503043 67.931255 -47.734042
Li -33.526089 68.913502 -46.144734
Li -32.014566 68.422379 -45.162486
Li -32.014566 70.011688 -46.144734
Li -30.503043 68.913502 -46.144734
Fe -44.820392 57.529101 -25.152810
Li -44.820392 55.939792 -25.947463
Li -45.754565 58.814879 -25.947465
Li -46.331915 57.037977 -25.947464
Li -43.308870 57.037977 -25.947464
Li -43.886220 58.814879 -25.947465
Li -44.820392 57.529101 -26.929711
Li -45.754565 56.243323 -24.358155
Li -46.331915 58.020225 -24.358155
Li -44.820392 57.529102 -23.375908
Li -43.886220 56.243323 -24.358155
Li -43.308870 58.020225 -24.358155
Li -44.820392 59.118411 -24.358156
Fe -51.223306 46.144690 -28.519015
Li -51.223306 44.555380 -29.313669
Li -52.157478 44.858912 -27.724360
Li -50.289133 44.858912 -27.724360
Li -51.223306 46.144689 -30.295917
Li -52.734828 45.653566 -29.313669
Li -52.157478 47.430467 -29.313670
Li -52.734828 46.635813 -27.724361
Li -51.223306 46.144691 -26.742114
Li -51.223306 47.734000 -27.724361
Li -49.711783 45.653566 -29.313669
Li -49.711783 46.635813 -27.724361
Li -50.289133 47.430467 -29.313670
Fe -34.460261 47.430471 -21.786595
Li -35.971784 46.939347 -22.581248
Li -34.460261 47.430469 -23.563496
Li -34.460261 45.841161 -22.581248
Li -32.948738 46.939347 -22.581248
Li -33.526089 48.716249 -22.581250
Li -35.394434 48.716249 -22.581250
Li -35.394434 46.144693 -20.991939
Li -35.971784 47.921595 -20.991940
Li -33.526089 46.144693 -20.991939
Li -34.460261 47.430471 -20.009692
Li -34.460261 49.019780 -20.991940
Li -32.948738 47.921595 -20.991940
Fe -34.460261 54.162894 -18.420387
Li -34.460261 52.573584 -19.215040
Li -35.394434 52.877116 -17.625732
Li -35.971784 53.671770 -19.215041
Li -35.971784 54.654018 -17.625732
Li -35.394434 55.448671 -19.215042
Li -33.526089 55.448671 -19.215042
Li -34.460261 54.162893 -20.197288
Li -32.948738 53.671770 -19.215041
Li -34.460261 55.752203 -17.625733
Li -33.526089 52.877116 -17.625732
Li -32.948738 54.654018 -17.625732
Li -34.460261 54.162894 -16.643485
Fe -21.654435 58.323751 -36.046096
Li -23.165958 57.832627 -36.840750
Li -23.165958 58.814874 -35.251442
Li -21.654435 56.734442 -36.840751
Li -21.654435 58.323750 -37.822998
Li -22.588607 59.609529 -36.840752
Li -20.142912 57.832627 -36.840750
Li -20.720262 59.609529 -36.840752
Li -21.654435 58.323752 -34.269195
Li -22.588607 57.037974 -35.251442
Li -21.654435 59.913061 -35.251443
Li -20.720262 57.037974 -35.251442
Li -20.142912 58.814874 -35.251442
Fe -35.971784 67.136604 -36.840755
Li -35.971784 65.547295 -37.635409
Li -35.971784 67.136604 -38.617657
Li -37.483307 66.645481 -37.635409
Li -37.483307 67.627728 -36.046101
Li -36.905956 65.850827 -36.046100
Li -35.971784 67.136606 -35.063853
Li -35.037612 65.850827 -36.046100
Li -34.460261 66.645481 -37.635409
Li -34.460261 67.627728 -36.046101
Li -36.905956 68.422382 -37.635410
Li -35.037612 68.422382 -37.635410
Li -35.971784 68.725914 -36.046101
Fe -51.223306 35.251406 -21.786589
Li -51.223306 33.662096 -22.581243
Li -51.223306 35.251405 -23.563491
Li -52.734828 34.760283 -22.581243
Li -52.157478 36.537184 -22.581244
Li -52.157478 33.965628 -20.991934
Li -51.223306 35.251407 -20.009687
Li -52.734828 35.742530 -20.991935
Li -51.223306 36.840716 -20.991935
Li -49.711783 34.760283 -22.581243
Li -50.289133 36.537184 -22.581244
Li -50.289133 33.965628 -20.991934
Li -49.711783 35.742530 -20.991935
Fe -44.820392 68.422382 -39.412312
Li -46.331915 67.931258 -40.206966
Li -44.820392 66.833072 -40.206966
Li -43.308870 67.931258 -40.206966
Li -45.754565 67.136604 -38.617657
Li -43.886220 67.136604 -38.617657
Li -44.820392 68.422381 -41.189214
Li -43.886220 69.708159 -40.206967
Li -45.754565 69.708159 -40.206967
Li -46.331915 68.913506 -38.617657
Li -44.820392 70.011691 -38.617658
Li -44.820392 68.422382 -37.635410
Li -43.308870 68.913506 -38.617657
Fe -32.014566 54.957543 -29.313674
Li -32.014566 53.368234 -30.108328
Li -33.526089 54.466420 -30.108327
Li -32.014566 54.957543 -31.090576
Li -32.948738 56.243321 -30.108329
Li -32.948738 53.671765 -28.519018
Li -33.526089 55.448667 -28.519020
Li -32.014566 56.546853 -28.519020
Li -32.014566 54.957545 -27.536772
Li -30.503043 54.466420 -30.108327
Li -31.080394 56.243321 -30.108329
Li -31.080394 53.671765 -28.519018
Li -30.503043 55.448667 -28.519020
Fe -21.654435 47.430467 -29.313670
Li -23.165958 46.939344 -30.108324
Li -23.165958 47.921591 -28.519016
Li -21.654435 45.841157 -30.108324
Li -21.654435 47.430466 -31.090572
Li -22.588607 48.716245 -30.108326
Li -20.142912 46.939344 -30.108324
Li -20.720262 48.716245 -30.108326
Li -22.588607 46.144690 -28.519015
Li -21.654435 47.430468 -27.536768
Li -20.720262 46.144690 -28.519015
Li -20.142912 47.921591 -28.519016
Li -21.654435 49.019777 -28.519016
Fe -44.820392 61.689963 -33.474542
Li -44.820392 60.100654 -34.269196
Li -44.820392 61.689962 -35.251444
Li -45.754565 60.404185 -32.679887
Li -43.886220 60.404185 -32.679887
Li -46.331915 61.198839 -34.269196
Li -43.308870 61.198839 -34.269196
Li -43.308870 62.181086 -32.679888
Li -46.331915 62.181086 -32.679888
Li -44.820392 63.279273 -32.679888
Li -45.754565 62.975741 -34.269197
Li -43.886220 62.975741 -34.269197
Li -44.820392 61.689964 -31.697640
Fe -38.417479 59.609532 -29.313676
Li -39.929002 59.118408 -30.108330
Li -39.351652 58.323754 -28.519021
Li -39.929002 60.100656 -28.519021
Li -39.351652 60.895310 -30.108331
Li -38.417479 59.609531 -31.090578
Li -38.417479 58.020223 -30.108330
Li -36.905956 59.118408 -30.108330
Li -37.483307 58.323754 -28.519021
Li -38.417479 59.609533 -27.536774
Li -36.905956 60.100656 -28.519021
Li -37.483307 60.895310 -30.108331
Li -38.417479 61.198842 -28.519022
Fe -40.863174 49.510905 -18.420385
Li -40.863174 47.921595 -19.215039
Li -41.797347 48.225127 -17.625730
Li -39.929002 48.225127 -17.625730
Li -39.351652 49.019781 -19.215039
Li -42.374697 49.019781 -19.215039
Li -40.863174 49.510904 -20.197286
Li -41.797347 50.796683 -19.215040
Li -42.374697 50.002029 -17.625730
Li -40.863174 51.100214 -17.625731
Li -39.929002 50.796683 -19.215040
Li -39.351652 50.002029 -17.625730
Li -40.863174 49.510905 -16.643483
Fe -38.417479 35.251400 -36.840741
Li -39.351652 36.537177 -37.635395
Li -39.929002 34.760276 -37.635395
Li -39.351652 33.965622 -36.046085
Li -39.929002 35.742524 -36.046087
Li -36.905956 34.760276 -37.635395
Li -38.417479 33.662090 -37.635394
Li -38.417479 35.251399 -38.617642
Li -37.483307 36.537177 -37.635395
Li -37.483307 33.965622 -36.046085
Li -38.417479 36.840709 -36.046087
Li -36.905956 35.742524 -36.046087
Li -38.417479 35.251400 -35.063839
Fe -38.417479 59.609525 -46.144729
Li -39.929002 59.118401 -46.939383
Li -39.351652 58.323747 -45.350074
Li -39.351652 60.895302 -46.939384
Li -39.929002 60.100649 -45.350075
Li -38.417479 59.609524 -47.921631
Li -38.417479 58.020215 -46.939383
Li -37.483307 58.323747 -45.350074
Li -36.905956 59.118401 -46.939383
Li -36.905956 60.100649 -45.350075
Li -38.417479 59.609525 -44.367827
Li -37.483307 60.895302 -46.939384
Li -38.417479 61.198834 -45.350075
Fe -52.734828 48.225117 -40.206957
Li -54.246351 47.733993 -41.001612
Li -52.734828 46.635808 -41.001611
Li -51.223306 47.733993 -41.001612
Li -52.734828 48.225117 -41.983859
Li -53.669001 49.510895 -41.001612
Li -51.800656 49.510895 -41.001612
Li -53.669001 46.939339 -39.412302
Li -54.246351 48.716241 -39.412303
Li -51.800656 46.939339 -39.412302
Li -52.734828 48.225118 -38.430056
Li -51.223306 48.716241 -39.412303
Li -52.734828 49.814427 -39.412304
Fe -38.417479 70.502819 -28.519027
Li -39.929002 70.011696 -29.313681
Li -39.351652 71.788596 -29.313681
Li -39.351652 69.217041 -27.724371
Li -39.929002 70.993943 -27.724372
Li -38.417479 70.502818 -30.295927
Li -36.905956 70.011696 -29.313681
Li -37.483307 71.788596 -29.313681
Li -38.417479 68.913510 -29.313679
Li -37.483307 69.217041 -27.724371
Li -38.417479 70.502820 -26.742125
Li -36.905956 70.993943 -27.724372
Li -38.417479 72.092128 -27.724372
Fe -32.014566 44.064255 -31.885225
Li -32.014566 44.064255 -33.662127
Li -32.948738 42.778478 -31.090570
Li -32.014566 42.474946 -32.679879
Li -33.526089 43.573132 -32.679879
Li -32.948738 45.350033 -32.679880
Li -33.526089 44.555379 -31.090571
Li -32.014566 44.064257 -30.108323
Li -32.014566 45.653566 -31.090571
Li -31.080394 42.778478 -31.090570
Li -30.503043 43.573132 -32.679879
Li -30.503043 44.555379 -31.090571
Li -31.080394 45.350033 -32.679880
Fe -32.014566 57.529101 -25.152810
Li -32.014566 55.939792 -25.947463
Li -32.014566 57.529101 -26.929711
Li -33.526089 57.037977 -25.947464
Li -32.948738 58.814879 -25.947465
Li -32.014566 57.529102 -23.375908
Li -32.948738 56.243323 -24.358155
Li -32.014566 59.118411 -24.358156
Li -33.526089 58.020225 -24.358155
Li -31.080394 58.814879 -25.947465
Li -30.503043 57.037977 -25.947464
Li -31.080394 56.243323 -24.358155
Li -30.503043 58.020225 -24.358155
Fe -38.417479 46.144694 -19.215038
Li -39.351652 44.858916 -18.420383
Li -39.351652 47.430471 -20.009692
Li -39.929002 45.653570 -20.009692
Li -39.929002 46.635818 -18.420384
Li -38.417479 44.555384 -20.009692
Li -37.483307 44.858916 -18.420383
Li -38.417479 46.144693 -20.991939
Li -36.905956 45.653570 -20.009692
Li -36.905956 46.635818 -18.420384
Li -37.483307 47.430471 -20.009692
Li -38.417479 47.734003 -18.420383
Li -38.417479 46.144695 -17.438136
Fe -28.057348 49.510894 -42.778514
Li -28.057348 49.510893 -44.555416
Li -29.568871 49.019770 -43.573168
Li -28.057348 47.921585 -43.573168
Li -28.991520 48.225117 -41.983859
Li -28.991520 50.796672 -43.573169
Li -29.568871 50.002017 -41.983860
Li -28.057348 51.100204 -41.983860
Li -28.057348 49.510895 -41.001612
Li -26.545825 49.019770 -43.573168
Li -27.123176 48.225117 -41.983859
Li -26.545825 50.002017 -41.983860
Li -27.123176 50.796672 -43.573169
Fe -35.971784 45.350037 -25.152804
Li -37.483307 44.858913 -25.947458
Li -35.971784 43.760727 -25.947458
Li -34.460261 44.858913 -25.947458
Li -35.971784 45.350035 -26.929706
Li -36.905956 46.635815 -25.947460
Li -35.037612 46.635815 -25.947460
Li -36.905956 44.064259 -24.358149
Li -35.971784 45.350037 -23.375902
Li -35.037612 44.064259 -24.358149
Li -37.483307 45.841161 -24.358150
Li -35.971784 46.939346 -24.358150
Li -34.460261 45.841161 -24.358150
Fe -48.777610 60.404188 -25.152811
Li -50.289133 59.913064 -25.947465
Li -48.777610 58.814879 -25.947465
Li -47.266088 59.913064 -25.947465
Li -49.711783 59.118411 -24.358156
Li -47.843438 59.118411 -24.358156
Li -49.711783 61.689966 -25.947466
Li -48.777610 60.404188 -26.929713
Li -47.843438 61.689966 -25.947466
Li -50.289133 60.895312 -24.358156
Li -48.777610 61.993498 -24.358157
Li -47.266088 60.895312 -24.358156
Li -48.777610 60.404189 -23.375909
Fe -44.820392 39.903395 -21.786591
Li -44.820392 38.314085 -22.581245
Li -46.331915 39.412271 -22.581245
Li -44.820392 39.903394 -23.563493
Li -43.308870 39.412271 -22.581245
Li -45.754565 41.189173 -22.581247
Li -43.886220 41.189173 -22.581247
Li -46.331915 40.394519 -20.991937
Li -45.754565 38.617617 -20.991936
Li -44.820392 41.492704 -20.991937
Li -43.308870 40.394519 -20.991937
Li -43.886220 38.617617 -20.991936
Li -44.820392 39.903395 -20.009689
Fe -25.611653 52.877112 -25.152808
Li -25.611653 51.287803 -25.947462
Li -27.123176 52.385989 -25.947462
Li -24.100130 52.385989 -25.947462
Li -26.545825 51.591334 -24.358152
Li -24.677480 51.591334 -24.358152
Li -25.611653 52.877112 -26.929710
Li -26.545825 54.162890 -25.947463
Li -24.677480 54.162890 -25.947463
Li -27.123176 53.368237 -24.358153
Li -25.611653 54.466422 -24.358154
Li -24.100130 53.368237 -24.358153
Li -25.611653 52.877114 -23.375906
Fe -52.734828 61.689969 -18.420390
Li -53.669001 62.975747 -19.215046
Li -53.669001 60.404191 -17.625735
Li -54.246351 62.181093 -17.625736
Li -54.246351 61.198846 -19.215044
Li -51.223306 61.198846 -19.215044
Li -52.734828 60.100661 -19.215044
Li -51.800656 60.404191 -17.625735
Li -52.734828 61.689969 -20.197292
Li -51.223306 62.181093 -17.625736
Li -52.734828 63.279279 -17.625737
Li -51.800656 62.975747 -19.215046
Li -52.734828 61.689971 -16.643489
Fe -52.734828 57.529098 -32.679886
Li -52.734828 55.939789 -33.474540
Li -52.734828 57.529097 -34.456788
Li -54.246351 57.037974 -33.474540
Li -53.669001 58.814876 -33.474541
Li -51.223306 57.037974 -33.474540
Li -51.800656 58.814876 -33.474541
Li -53.669001 56.243320 -31.885230
Li -51.800656 56.243320 -31.885230
Li -54.246351 58.020222 -31.885231
Li -52.734828 57.529099 -30.902984
Li -51.223306 58.020222 -31.885231
Li -52.734828 59.118408 -31.885232
Fe -44.820392 72.583253 -25.152817
Li -46.331915 72.092130 -25.947471
Li -44.820392 70.993944 -25.947470
Li -44.820392 72.583253 -26.929718
Li -43.308870 72.092130 -25.947471
Li -45.754565 73.869030 -25.947472
Li -43.886220 73.869030 -25.947472
Li -45.754565 71.297475 -24.358162
Li -44.820392 72.583254 -23.375915
Li -43.886220 71.297475 -24.358162
Li -44.820392 74.172563 -24.358163
Li -46.331915 73.074377 -24.358162
Li -43.308870 73.074377 -24.358162
Fe -40.863174 38.617614 -28.519012
Li -40.863174 37.028305 -29.313666
Li -41.797347 37.331836 -27.724357
Li -39.929002 37.331836 -27.724357
Li -40.863174 38.617613 -30.295913
Li -42.374697 38.126490 -29.313666
Li -42.374697 39.108737 -27.724358
Li -40.863174 38.617615 -26.742110
Li -39.351652 39.108737 -27.724358
Li -39.351652 38.126490 -29.313666
Li -41.797347 39.903392 -29.313667
Li -40.863174 40.206923 -27.724358
Li -39.929002 39.903392 -29.313667
Fe -38.417479 48.716241 -39.412303
Li -39.929002 49.207365 -38.617649
Li -39.929002 48.225117 -40.206957
Li -39.351652 47.430463 -38.617648
Li -39.351652 50.002019 -40.206958
Li -38.417479 48.716240 -41.189205
Li -38.417479 47.126932 -40.206957
Li -36.905956 48.225117 -40.206957
Li -36.905956 49.207365 -38.617649
Li -37.483307 47.430463 -38.617648
Li -38.417479 48.716242 -37.635401
Li -37.483307 50.002019 -40.206958
Li -38.417479 50.305551 -38.617649
Fe -34.460261 58.323759 -19.215043
Li -35.971784 57.832635 -20.009697
Li -35.394434 57.037981 -18.420388
Li -35.394434 59.609536 -20.009699
Li -35.971784 58.814883 -18.420388
Li -34.460261 58.323757 -20.991945
Li -34.460261 56.734448 -20.009697
Li -33.526089 57.037981 -18.420388
Li -32.948738 57.832635 -20.009697
Li -33.526089 59.609536 -20.009699
Li -34.460261 59.913068 -18.420389
Li -32.948738 58.814883 -18.420388
Li -34.460261 58.323759 -17.438141
Fe -21.654435 58.323747 -43.573172
Li -23.165958 57.832623 -44.367827
Li -23.165958 58.814871 -42.778518
Li -21.654435 56.734438 -44.367826
Li -21.654435 58.323747 -45.350074
Li -22.588607 59.609525 -44.367827
Li -20.142912 57.832623 -44.367827
Li -20.720262 59.609525 -44.367827
Li -22.588607 57.037970 -42.778517
Li -21.654435 59.913058 -42.778518
Li -21.654435 58.323749 -41.796270
Li -20.720262 57.037970 -42.778517
Li -20.142912 58.814871 -42.778518
Fe -38.417479 52.877112 -25.152808
Li -39.929002 52.385989 -25.947462
Li -39.351652 51.591334 -24.358152
Li -38.417479 51.287803 -25.947462
Li -36.905956 52.385989 -25.947462
Li -37.483307 51.591334 -24.358152
Li -39.351652 54.162890 -25.947463
Li -39.929002 53.368237 -24.358153
Li -37.483307 54.162890 -25.947463
Li -38.417479 52.877112 -26.929710
Li -38.417479 54.466422 -24.358154
Li -36.905956 53.368237 -24.358153
Li -38.417479 52.877114 -23.375906
Fe -52.734828 57.529101 -25.152810
Li -52.734828 55.939792 -25.947463
Li -54.246351 57.037977 -25.947464
Li -52.734828 57.529101 -26.929711
Li -53.669001 58.814879 -25.947465
Li -51.800656 58.814879 -25.947465
Li -51.223306 57.037977 -25.947464
Li -53.669001 56.243323 -24.358155
Li -54.246351 58.020225 -24.358155
Li -52.734828 57.529102 -23.375908
Li -51.800656 56.243323 -24.358155
Li -51.223306 58.020225 -24.358155
Li -52.734828 59.118411 -24.358156
Fe -29.568871 40.698045 -32.679878
Li -31.080394 40.206921 -33.474533
Li -29.568871 40.698043 -34.456779
Li -29.568871 39.108735 -33.474532
Li -28.057348 40.206921 -33.474533
Li -30.503043 41.983823 -33.474533
Li -28.634698 41.983823 -33.474533
Li -30.503043 39.412267 -31.885223
Li -31.080394 41.189168 -31.885224
Li -29.568871 40.698045 -30.902976
Li -28.634698 39.412267 -31.885223
Li -28.057348 41.189168 -31.885224
Li -29.568871 42.287354 -31.885224
Fe -32.014566 37.331837 -25.947455
Li -33.526089 36.840713 -26.742110
Li -32.014566 35.742527 -26.742109
Li -32.014566 37.331836 -27.724357
Li -30.503043 36.840713 -26.742110
Li -32.948738 36.046059 -25.152800
Li -31.080394 36.046059 -25.152800
Li -32.014566 37.331838 -24.170553
Li -32.948738 38.617615 -26.742110
Li -33.526089 37.822961 -25.152801
Li -32.014566 38.921146 -25.152801
Li -31.080394 38.617615 -26.742110
Li -30.503043 37.822961 -25.152801
Fe -52.734828 54.957546 -21.786598
Li -54.246351 54.466423 -22.581252
Li -52.734828 54.957546 -23.563500
Li -52.734828 53.368237 -22.581252
Li -51.223306 54.466423 -22.581252
Li -53.669001 56.243324 -22.581253
Li -51.800656 56.243324 -22.581253
Li -53.669001 53.671769 -20.991943
Li -51.800656 53.671769 -20.991943
Li -52.734828 54.957548 -20.009696
Li -51.223306 55.448671 -20.991943
Li -54.246351 55.448671 -20.991943
Li -52.734828 56.546857 -20.991944
Fe -25.611653 59.609532 -29.313676
Li -27.123176 59.118408 -30.108330
Li -24.100130 59.118408 -30.108330
Li -25.611653 59.609531 -31.090578
Li -25.611653 58.020223 -30.108330
Li -26.545825 58.323754 -28.519021
Li -27.123176 60.100656 -28.519021
Li -24.677480 58.323754 -28.519021
Li -25.611653 59.609533 -27.536774
Li -24.100130 60.100656 -28.519021
Li -26.545825 60.895310 -30.108331
Li -24.677480 60.895310 -30.108331
Li -25.611653 61.198842 -28.519022
Fe -34.460261 40.698041 -40.206954
Li -35.971784 40.206917 -41.001608
Li -34.460261 39.108731 -41.001607
Li -34.460261 40.698040 -41.983855
Li -32.948738 40.206917 -41.001608
Li -35.394434 41.983819 -41.001609
Li -33.526089 41.983819 -41.001609
Li -35.971784 41.189165 -39.412300
Li -35.394434 39.412264 -39.412298
Li -33.526089 39.412264 -39.412298
Li -34.460261 40.698041 -38.430052
Li -32.948738 41.189165 -39.412300
Li -34.460261 42.287350 -39.412300
Fe -28.057348 52.082456 -29.313673
Li -29.568871 51.591333 -30.108327
Li -28.057348 52.082455 -31.090574
Li -28.057348 50.493146 -30.108326
Li -28.991520 50.796678 -28.519017
Li -28.057348 52.082457 -27.536770
Li -29.568871 52.573580 -28.519018
Li -26.545825 51.591333 -30.108327
Li -27.123176 50.796678 -28.519017
Li -26.545825 52.573580 -28.519018
Li -28.991520 53.368234 -30.108328
Li -28.057348 53.671765 -28.519018
Li -27.123176 53.368234 -30.108328
Fe -44.820392 57.529095 -40.206961
Li -44.820392 55.939785 -41.001616
Li -44.820392 57.529094 -41.983863
Li -46.331915 57.037971 -41.001615
Li -45.754565 58.814872 -41.001617
Li -43.886220 58.814872 -41.001617
Li -43.308870 57.037971 -41.001615
Li -45.754565 56.243317 -39.412306
Li -43.886220 56.243317 -39.412306
Li -46.331915 58.020218 -39.412307
Li -44.820392 57.529096 -38.430060
Li -43.308870 58.020218 -39.412307
Li -44.820392 59.118405 -39.412308
Fe -48.777610 62.975739 -36.046099
Li -48.777610 61.386430 -36.840753
Li -50.289133 62.484616 -36.840753
Li -48.777610 62.975739 -37.823001
Li -47.266088 62.484616 -36.840753
Li -49.711783 61.689962 -35.251444
Li -50.289133 63.466864 -35.251444
Li -47.843438 61.689962 -35.251444
Li -47.266088 63.466864 -35.251444
Li -48.777610 62.975741 -34.269197
Li -49.711783 64.261517 -36.840754
Li -47.843438 64.261517 -36.840754
Li -48.777610 64.565049 -35.251445
Fe -32.014566 54.957546 -21.786598
Li -32.014566 54.957546 -23.563500
Li -32.014566 53.368237 -22.581252
Li -33.526089 54.466423 -22.581252
Li -32.948738 56.243324 -22.581253
Li -33.526089 55.448671 -20.991943
Li -32.948738 53.671769 -20.991943
Li -32.014566 54.957548 -20.009696
Li -32.014566 56.546857 -20.991944
Li -30.503043 54.466423 -22.581252
Li -31.080394 56.243324 -22.581253
Li -30.503043 55.448671 -20.991943
Li -31.080394 53.671769 -20.991943
Fe -32.014566 44.064263 -15.054172
Li -32.948738 45.350041 -15.848827
Li -33.526089 43.573140 -15.848826
Li -32.948738 42.778485 -14.259517
Li -33.526089 44.555387 -14.259517
Li -32.014566 42.474953 -15.848826
Li -30.503043 43.573140 -15.848826
Li -32.014566 44.064262 -16.831073
Li -31.080394 45.350041 -15.848827
Li -31.080394 42.778485 -14.259517
Li -30.503043 44.555387 -14.259517
Li -32.014566 44.064264 -13.277270
Li -32.014566 45.653572 -14.259518
Fe -48.777610 49.510891 -50.305589
Li -50.289133 49.019766 -51.100244
Li -50.289133 50.002014 -49.510935
Li -48.777610 47.921581 -51.100244
Li -48.777610 49.510890 -52.082491
Li -47.266088 49.019766 -51.100244
Li -49.711783 48.225114 -49.510935
Li -47.843438 48.225114 -49.510935
Li -47.843438 50.796669 -51.100245
Li -49.711783 50.796669 -51.100245
Li -48.777610 49.510891 -48.528689
Li -48.777610 51.100200 -49.510936
Li -47.266088 50.002014 -49.510935
Fe -40.863174 45.350030 -40.206956
Li -42.374697 44.858906 -41.001611
Li -40.863174 43.760720 -41.001610
Li -40.863174 45.350029 -41.983857
Li -39.351652 44.858906 -41.001611
Li -41.797347 44.064252 -39.412301
Li -40.863174 45.350031 -38.430054
Li -39.929002 44.064252 -39.412301
Li -41.797347 46.635808 -41.001611
Li -39.929002 46.635808 -41.001611
Li -42.374697 45.841154 -39.412302
Li -40.863174 46.939339 -39.412302
Li -39.351652 45.841154 -39.412302
Fe -38.417479 52.877099 -57.038013
Li -39.929002 52.385975 -57.832667
Li -39.351652 51.591321 -56.243357
Li -38.417479 52.877098 -58.814914
Li -38.417479 51.287789 -57.832666
Li -36.905956 52.385975 -57.832667
Li -37.483307 51.591321 -56.243357
Li -38.417479 52.877099 -55.261111
Li -39.351652 54.162876 -57.832667
Li -39.929002 53.368223 -56.243359
Li -36.905956 53.368223 -56.243359
Li -37.483307 54.162876 -57.832667
Li -38.417479 54.466408 -56.243359
Fe -40.863174 56.243324 -22.581253
Li -42.374697 55.752201 -23.375907
Li -41.797347 54.957546 -21.786598
Li -40.863174 54.654014 -23.375907
Li -39.929002 54.957546 -21.786598
Li -39.351652 55.752201 -23.375907
Li -41.797347 57.529102 -23.375908
Li -42.374697 56.734449 -21.786598
Li -40.863174 56.243323 -24.358155
Li -39.929002 57.529102 -23.375908
Li -39.351652 56.734449 -21.786598
Li -40.863174 57.832634 -21.786599
Li -40.863174 56.243325 -20.804351
Fe -47.266088 40.698048 -25.152802
Li -47.266088 40.698047 -26.929704
Li -48.200260 41.983826 -25.947457
Li -47.266088 39.108739 -25.947456
Li -48.200260 39.412270 -24.358147
Li -48.777610 41.189172 -24.358148
Li -48.777610 40.206924 -25.947456
Li -47.266088 40.698049 -23.375900
Li -47.266088 42.287357 -24.358148
Li -46.331915 41.983826 -25.947457
Li -45.754565 40.206924 -25.947456
Li -46.331915 39.412270 -24.358147
Li -45.754565 41.189172 -24.358148
Fe -38.417479 67.931265 -25.152815
Li -39.929002 67.440141 -25.947469
Li -39.351652 66.645487 -24.358159
Li -39.351652 69.217042 -25.947469
Li -39.929002 68.422389 -24.358160
Li -38.417479 67.931263 -26.929716
Li -38.417479 66.341955 -25.947468
Li -36.905956 67.440141 -25.947469
Li -37.483307 66.645487 -24.358159
Li -38.417479 67.931265 -23.375912
Li -37.483307 69.217042 -25.947469
Li -36.905956 68.422389 -24.358160
Li -38.417479 69.520574 -24.358160
Fe -32.014566 39.903395 -21.786591
Li -32.014566 38.314085 -22.581245
Li -33.526089 39.412271 -22.581245
Li -32.948738 41.189173 -22.581247
Li -32.014566 39.903394 -23.563493
Li -32.948738 38.617617 -20.991936
Li -33.526089 40.394519 -20.991937
Li -32.014566 41.492704 -20.991937
Li -32.014566 39.903395 -20.009689
Li -31.080394 41.189173 -22.581247
Li -30.503043 39.412271 -22.581245
Li -30.503043 40.394519 -20.991937
Li -31.080394 38.617617 -20.991936
Fe -55.180524 54.162890 -25.947463
Li -55.180524 52.573580 -26.742117
Li -56.692046 53.671767 -26.742117
Li -55.180524 54.162889 -27.724364
Li -56.114696 55.448668 -26.742118
Li -56.692046 54.654014 -25.152808
Li -55.180524 55.752199 -25.152809
Li -56.114696 52.877112 -25.152808
Li -55.180524 54.162891 -24.170561
Li -53.669001 53.671767 -26.742117
Li -54.246351 55.448668 -26.742118
Li -53.669001 54.654014 -25.152808
Li -54.246351 52.877112 -25.152808
Fe -55.180524 54.162894 -18.420387
Li -55.180524 52.573584 -19.215040
Li -56.114696 52.877116 -17.625732
Li -55.180524 54.162893 -20.197288
Li -56.692046 53.671770 -19.215041
Li -56.692046 54.654018 -17.625732
Li -56.114696 55.448671 -19.215042
Li -55.180524 55.752203 -17.625733
Li -54.246351 55.448671 -19.215042
Li -53.669001 53.671770 -19.215041
Li -53.669001 54.654018 -17.625732
Li -54.246351 52.877116 -17.625732
Li -55.180524 54.162894 -16.643485
Fe -38.417479 37.822954 -40.206953
Li -39.929002 37.331830 -41.001607
Li -39.351652 36.537176 -39.412297
Li -39.351652 39.108731 -41.001607
Li -39.929002 38.314078 -39.412299
Li -36.905956 37.331830 -41.001607
Li -38.417479 36.233644 -41.001606
Li -37.483307 36.537176 -39.412297
Li -38.417479 37.822953 -41.983854
Li -37.483307 39.108731 -41.001607
Li -38.417479 37.822955 -38.430050
Li -36.905956 38.314078 -39.412299
Li -38.417479 39.412264 -39.412298
Fe -38.417479 35.251403 -29.313665
Li -39.929002 34.760279 -30.108320
Li -39.351652 36.537181 -30.108320
Li -39.351652 33.965625 -28.519010
Li -39.929002 35.742527 -28.519011
Li -38.417479 33.662093 -30.108319
Li -36.905956 34.760279 -30.108320
Li -38.417479 35.251402 -31.090566
Li -37.483307 36.537181 -30.108320
Li -37.483307 33.965625 -28.519010
Li -38.417479 36.840712 -28.519011
Li -36.905956 35.742527 -28.519011
Li -38.417479 35.251404 -27.536763
Fe -25.611653 41.983826 -25.947457
Li -25.611653 40.394516 -26.742111
Li -27.123176 41.492702 -26.742111
Li -25.611653 41.983825 -27.724359
Li -26.545825 43.269603 -26.742112
Li -24.100130 41.492702 -26.742111
Li -24.677480 43.269603 -26.742112
Li -26.545825 40.698048 -25.152802
Li -24.677480 40.698048 -25.152802
Li -27.123176 42.474950 -25.152803
Li -25.611653 41.983826 -24.170555
Li -24.100130 42.474950 -25.152803
Li -25.611653 43.573135 -25.152803
Fe -32.014566 50.796683 -19.215040
Li -32.014566 49.207373 -20.009694
Li -32.948738 49.510905 -18.420385
Li -33.526089 50.305559 -20.009694
Li -32.014566 50.796681 -20.991942
Li -33.526089 51.287807 -18.420385
Li -32.948738 52.082460 -20.009695
Li -32.014566 52.385992 -18.420386
Li -31.080394 52.082460 -20.009695
Li -30.503043 50.305559 -20.009694
Li -30.503043 51.287807 -18.420385
Li -31.080394 49.510905 -18.420385
Li -32.014566 50.796683 -17.438138
Fe -38.417479 57.037977 -25.947464
Li -39.929002 56.546854 -26.742118
Li -39.351652 55.752199 -25.152809
Li -39.929002 57.529101 -25.152810
Li -39.351652 58.323755 -26.742119
Li -38.417479 55.448668 -26.742118
Li -36.905956 56.546854 -26.742118
Li -38.417479 57.037977 -27.724366
Li -36.905956 57.529101 -25.152810
Li -37.483307 58.323755 -26.742119
Li -38.417479 58.627287 -25.152810
Li -37.483307 55.752199 -25.152809
Li -38.417479 57.037979 -24.170562
Fe -25.611653 46.144686 -36.046091
Li -25.611653 44.555377 -36.840745
Li -26.545825 44.858908 -35.251436
Li -24.677480 44.858908 -35.251436
Li -25.611653 46.144686 -37.822993
Li -27.123176 45.653562 -36.840746
Li -27.123176 46.635810 -35.251437
Li -26.545825 47.430464 -36.840746
Li -24.100130 46.635810 -35.251437
Li -24.100130 45.653562 -36.840746
Li -25.611653 46.144688 -34.269189
Li -24.677480 47.430464 -36.840746
Li -25.611653 47.733996 -35.251437
Fe -32.014566 65.850831 -28.519024
Li -32.014566 64.261521 -29.313678
Li -33.526089 65.359707 -29.313678
Li -32.014566 65.850829 -30.295926
Li -32.948738 67.136608 -29.313679
Li -32.948738 64.565053 -27.724369
Li -32.014566 65.850831 -26.742122
Li -33.526089 66.341955 -27.724370
Li -32.014566 67.440140 -27.724370
Li -30.503043 65.359707 -29.313678
Li -31.080394 67.136608 -29.313679
Li -31.080394 64.565053 -27.724369
Li -30.503043 66.341955 -27.724370
Fe -38.417479 31.090532 -43.573160
Li -39.929002 31.581655 -42.778506
Li -39.351652 32.376309 -44.367815
Li -39.929002 30.599407 -44.367815
Li -39.351652 29.804754 -42.778505
Li -38.417479 31.090530 -45.350062
Li -36.905956 30.599407 -44.367815
Li -38.417479 29.501222 -44.367814
Li -37.483307 32.376309 -44.367815
Li -36.905956 31.581655 -42.778506
Li -37.483307 29.804754 -42.778505
Li -38.417479 31.090532 -41.796259
Li -38.417479 32.679840 -42.778507
Fe -46.331915 52.877106 -40.206959
Li -47.843438 52.385982 -41.001614
Li -47.266088 51.591328 -39.412304
Li -46.331915 52.877105 -41.983861
Li -46.331915 51.287797 -41.001613
Li -44.820392 52.385982 -41.001614
Li -45.397743 51.591328 -39.412304
Li -46.331915 52.877107 -38.430057
Li -47.266088 54.162884 -41.001614
Li -47.843438 53.368230 -39.412305
Li -45.397743 54.162884 -41.001614
Li -46.331915 54.466416 -39.412305
Li -44.820392 53.368230 -39.412305
Fe -35.971784 38.617614 -28.519012
Li -35.971784 37.028305 -29.313666
Li -36.905956 37.331836 -27.724357
Li -35.037612 37.331836 -27.724357
Li -35.971784 38.617613 -30.295913
Li -37.483307 38.126490 -29.313666
Li -36.905956 39.903392 -29.313667
Li -37.483307 39.108737 -27.724358
Li -35.971784 38.617615 -26.742110
Li -35.971784 40.206923 -27.724358
Li -35.037612 39.903392 -29.313667
Li -34.460261 39.108737 -27.724358
Li -34.460261 38.126490 -29.313666
Fe -47.266088 47.430467 -29.313670
Li -47.266088 45.841157 -30.108324
Li -47.266088 47.430466 -31.090572
Li -48.777610 46.939344 -30.108324
Li -48.200260 48.716245 -30.108326
Li -48.200260 46.144690 -28.519015
Li -47.266088 49.019777 -28.519016
Li -48.777610 47.921591 -28.519016
Li -47.266088 47.430468 -27.536768
Li -45.754565 46.939344 -30.108324
Li -46.331915 48.716245 -30.108326
Li -45.754565 47.921591 -28.519016
Li -46.331915 46.144690 -28.519015
Fe -44.820392 50.796686 -11.687964
Li -46.331915 50.305562 -12.482618
Li -45.754565 52.082463 -12.482619
Li -44.820392 50.796685 -13.464865
Li -43.886220 52.082463 -12.482619
Li -43.308870 50.305562 -12.482618
Li -44.820392 49.207377 -12.482617
Li -45.754565 49.510908 -10.893309
Li -46.331915 51.287810 -10.893309
Li -44.820392 50.796686 -9.911062
Li -43.308870 51.287810 -10.893309
Li -44.820392 52.385995 -10.893310
Li -43.886220 49.510908 -10.893309
Fe -51.223306 59.609535 -21.786600
Li -51.223306 59.609535 -23.563501
Li -51.223306 58.020226 -22.581253
Li -52.734828 59.118411 -22.581254
Li -52.157478 58.323757 -20.991945
Li -51.223306 59.609536 -20.009699
Li -49.711783 59.118411 -22.581254
Li -50.289133 58.323757 -20.991945
Li -52.157478 60.895313 -22.581255
Li -51.223306 61.198845 -20.991946
Li -52.734828 60.100659 -20.991945
Li -50.289133 60.895313 -22.581255
Li -49.711783 60.100659 -20.991945
Fe -44.820392 54.957543 -29.313674
Li -46.331915 54.466420 -30.108327
Li -44.820392 53.368234 -30.108328
Li -43.308870 54.466420 -30.108327
Li -44.820392 54.957543 -31.090576
Li -45.754565 56.243321 -30.108329
Li -43.886220 56.243321 -30.108329
Li -45.754565 53.671765 -28.519018
Li -44.820392 54.957545 -27.536772
Li -43.886220 53.671765 -28.519018
Li -43.308870 55.448667 -28.519020
Li -46.331915 55.448667 -28.519020
Li -44.820392 56.546853 -28.519020
Fe -47.266088 58.323747 -43.573172
Li -48.777610 57.832623 -44.367827
Li -47.266088 58.323747 -45.350074
Li -47.266088 56.734438 -44.367826
Li -48.200260 59.609525 -44.367827
Li -48.200260 57.037970 -42.778517
Li -48.777610 58.814871 -42.778518
Li -47.266088 59.913058 -42.778518
Li -47.266088 58.323749 -41.796270
Li -45.754565 57.832623 -44.367827
Li -46.331915 59.609525 -44.367827
Li -46.331915 57.037970 -42.778517
Li -45.754565 58.814871 -42.778518
Fe -40.863174 42.778482 -21.786592
Li -42.374697 42.287358 -22.581246
Li -40.863174 41.189173 -22.581247
Li -40.863174 42.778481 -23.563494
Li -39.351652 42.287358 -22.581246
Li -41.797347 44.064260 -22.581248
Li -39.929002 44.064260 -22.581248
Li -41.797347 41.492704 -20.991937
Li -39.929002 41.492704 -20.991937
Li -39.351652 43.269606 -20.991938
Li -42.374697 43.269606 -20.991938
Li -40.863174 44.367791 -20.991938
Li -40.863174 42.778483 -20.009691
Fe -28.057348 45.350033 -32.679880
Li -29.568871 44.858910 -33.474534
Li -28.057348 43.760723 -33.474534
Li -26.545825 44.858910 -33.474534
Li -28.991520 46.635811 -33.474535
Li -28.057348 45.350032 -34.456782
Li -27.123176 46.635811 -33.474535
Li -28.991520 44.064255 -31.885225
Li -28.057348 45.350034 -30.902978
Li -27.123176 44.064255 -31.885225
Li -29.568871 45.841157 -31.885226
Li -28.057348 46.939343 -31.885226
Li -26.545825 45.841157 -31.885226
Fe -29.568871 40.698048 -25.152802
Li -31.080394 40.206924 -25.947456
Li -29.568871 39.108739 -25.947456
Li -29.568871 40.698047 -26.929704
Li -28.057348 40.206924 -25.947456
Li -30.503043 41.983826 -25.947457
Li -28.634698 41.983826 -25.947457
Li -30.503043 39.412270 -24.358147
Li -28.634698 39.412270 -24.358147
Li -31.080394 41.189172 -24.358148
Li -28.057348 41.189172 -24.358148
Li -29.568871 40.698049 -23.375900
Li -29.568871 42.287357 -24.358148
Fe -40.863174 45.350033 -32.679880
Li -42.374697 44.858910 -33.474534
Li -40.863174 45.350032 -34.456782
Li -39.351652 44.858910 -33.474534
Li -40.863174 43.760723 -33.474534
Li -41.797347 46.635811 -33.474535
Li -39.929002 46.635811 -33.474535
Li -41.797347 44.064255 -31.885225
Li -39.929002 44.064255 -31.885225
Li -40.863174 45.350034 -30.902978
Li -42.374697 45.841157 -31.885226
Li -39.351652 45.841157 -31.885226
Li -40.863174 46.939343 -31.885226
Fe -44.820392 65.850824 -43.573176
Li -46.331915 65.359700 -44.367831
Li -44.820392 64.261514 -44.367830
Li -43.308870 65.359700 -44.367831
Li -44.820392 65.850823 -45.350077
Li -43.886220 67.136601 -44.367831
Li -45.754565 67.136601 -44.367831
Li -44.820392 65.850825 -41.796274
Li -45.754565 64.565046 -42.778521
Li -43.886220 64.565046 -42.778521
Li -46.331915 66.341948 -42.778522
Li -44.820392 67.440133 -42.778522
Li -43.308870 66.341948 -42.778522
Fe -40.863174 60.404188 -25.152811
Li -42.374697 59.913064 -25.947465
Li -39.351652 59.913064 -25.947465
Li -40.863174 58.814879 -25.947465
Li -41.797347 59.118411 -24.358156
Li -39.929002 59.118411 -24.358156
Li -41.797347 61.689966 -25.947466
Li -39.929002 61.689966 -25.947466
Li -40.863174 60.404188 -26.929713
Li -42.374697 60.895312 -24.358156
Li -39.351652 60.895312 -24.358156
Li -40.863174 61.993498 -24.358157
Li -40.863174 60.404189 -23.375909
Fe -48.777610 67.136604 -36.840755
Li -49.711783 65.850827 -36.046100
Li -50.289133 66.645481 -37.635409
Li -50.289133 67.627728 -36.046101
Li -48.777610 65.547295 -37.635409
Li -47.843438 65.850827 -36.046100
Li -47.266088 66.645481 -37.635409
Li -47.266088 67.627728 -36.046101
Li -48.777610 67.136604 -38.617657
Li -48.777610 67.136606 -35.063853
Li -49.711783 68.422382 -37.635410
Li -47.843438 68.422382 -37.635410
Li -48.777610 68.725914 -36.046101
Fe -30.503043 52.877112 -25.152808
Li -32.014566 52.385989 -25.947462
Li -31.437216 51.591334 -24.358152
Li -30.503043 51.287803 -25.947462
Li -28.991520 52.385989 -25.947462
Li -29.568871 51.591334 -24.358152
Li -31.437216 54.162890 -25.947463
Li -32.014566 53.368237 -24.358153
Li -30.503043 52.877112 -26.929710
Li -29.568871 54.162890 -25.947463
Li -30.503043 54.466422 -24.358154
Li -30.503043 52.877114 -23.375906
Li -28.991520 53.368237 -24.358153
Fe -21.654435 51.591328 -39.412304
Li -23.165958 51.100204 -40.206959
Li -23.165958 52.082452 -38.617650
Li -22.588607 52.877106 -40.206959
Li -21.654435 51.591328 -41.189206
Li -20.142912 51.100204 -40.206959
Li -20.720262 52.877106 -40.206959
Li -21.654435 50.002019 -40.206958
Li -22.588607 50.305551 -38.617649
Li -20.720262 50.305551 -38.617649
Li -21.654435 51.591329 -37.635402
Li -20.142912 52.082452 -38.617650
Li -21.654435 53.180638 -38.617650
Fe -44.820392 44.064252 -39.412301
Li -44.820392 44.064252 -41.189203
Li -45.754565 45.350030 -40.206956
Li -43.886220 45.350030 -40.206956
Li -45.754565 42.778474 -38.617645
Li -46.331915 43.573128 -40.206955
Li -46.331915 44.555376 -38.617647
Li -44.820392 42.474943 -40.206955
Li -43.308870 44.555376 -38.617647
Li -43.886220 42.778474 -38.617645
Li -43.308870 43.573128 -40.206955
Li -44.820392 44.064254 -37.635399
Li -44.820392 45.653562 -38.617647
Fe -55.180524 65.056173 -32.679889
Li -55.180524 63.466864 -33.474543
Li -55.180524 65.056173 -34.456791
Li -56.692046 64.565050 -33.474543
Li -56.114696 66.341951 -33.474544
Li -53.669001 64.565050 -33.474543
Li -54.246351 66.341951 -33.474544
Li -56.114696 63.770396 -31.885234
Li -55.180524 65.056175 -30.902987
Li -56.692046 65.547298 -31.885234
Li -55.180524 66.645484 -31.885235
Li -54.246351 63.770396 -31.885234
Li -53.669001 65.547298 -31.885234
Fe -34.460261 58.323754 -28.519021
Li -35.971784 57.832630 -29.313675
Li -35.394434 59.609532 -29.313676
Li -34.460261 56.734445 -29.313675
Li -34.460261 58.323754 -30.295923
Li -33.526089 59.609532 -29.313676
Li -32.948738 57.832630 -29.313675
Li -35.394434 57.037977 -27.724366
Li -35.971784 58.814878 -27.724366
Li -34.460261 59.913064 -27.724367
Li -34.460261 58.323755 -26.742119
Li -33.526089 57.037977 -27.724366
Li -32.948738 58.814878 -27.724366
Fe -55.180524 40.698045 -32.679878
Li -55.180524 39.108735 -33.474532
Li -56.692046 40.206921 -33.474533
Li -55.180524 40.698043 -34.456779
Li -56.114696 41.983823 -33.474533
Li -53.669001 40.206921 -33.474533
Li -54.246351 41.983823 -33.474533
Li -56.114696 39.412267 -31.885223
Li -55.180524 40.698045 -30.902976
Li -56.692046 41.189168 -31.885224
Li -55.180524 42.287354 -31.885224
Li -54.246351 39.412267 -31.885223
Li -53.669001 41.189168 -31.885224
Fe -32.014566 65.850824 -43.573176
Li -33.526089 65.359700 -44.367831
Li -32.948738 67.136601 -44.367831
Li -32.014566 65.850823 -45.350077
Li -32.014566 64.261514 -44.367830
Li -32.948738 64.565046 -42.778521
Li -33.526089 66.341948 -42.778522
Li -32.014566 67.440133 -42.778522
Li -32.014566 65.850825 -41.796274
Li -30.503043 65.359700 -44.367831
Li -31.080394 67.136601 -44.367831
Li -31.080394 64.565046 -42.778521
Li -30.503043 66.341948 -42.778522
Fe -46.331915 59.609532 -29.313676
Li -47.843438 59.118408 -30.108330
Li -47.266088 58.323754 -28.519021
Li -47.266088 60.895310 -30.108331
Li -47.843438 60.100656 -28.519021
Li -46.331915 59.609531 -31.090578
Li -46.331915 58.020223 -30.108330
Li -44.820392 59.118408 -30.108330
Li -45.397743 58.323754 -28.519021
Li -46.331915 59.609533 -27.536774
Li -44.820392 60.100656 -28.519021
Li -45.397743 60.895310 -30.108331
Li -46.331915 61.198842 -28.519022
Fe -48.777610 42.778476 -36.840744
Li -48.777610 41.189166 -37.635398
Li -48.777610 42.778474 -38.617645
Li -47.266088 42.287351 -37.635399
Li -50.289133 42.287351 -37.635399
Li -47.843438 44.064254 -37.635399
Li -49.711783 44.064254 -37.635399
Li -50.289133 43.269599 -36.046090
Li -49.711783 41.492698 -36.046089
Li -48.777610 42.778476 -35.063843
Li -47.843438 41.492698 -36.046089
Li -47.266088 43.269599 -36.046090
Li -48.777610 44.367784 -36.046090
Fe -48.777610 38.617614 -28.519012
Li -48.777610 37.028305 -29.313666
Li -49.711783 37.331836 -27.724357
Li -47.843438 37.331836 -27.724357
Li -48.777610 38.617613 -30.295913
Li -50.289133 39.108737 -27.724358
Li -50.289133 38.126490 -29.313666
Li -49.711783 39.903392 -29.313667
Li -47.266088 38.126490 -29.313666
Li -47.843438 39.903392 -29.313667
Li -47.266088 39.108737 -27.724358
Li -48.777610 38.617615 -26.742110
Li -48.777610 40.206923 -27.724358
Fe -40.863174 49.510902 -25.947461
Li -42.374697 49.019778 -26.742114
Li -40.863174 47.921592 -26.742114
Li -39.351652 49.019778 -26.742114
Li -41.797347 50.796680 -26.742116
Li -40.863174 49.510900 -27.724362
Li -39.929002 50.796680 -26.742116
Li -41.797347 48.225124 -25.152805
Li -39.929002 48.225124 -25.152805
Li -40.863174 51.100211 -25.152806
Li -42.374697 50.002025 -25.152807
Li -40.863174 49.510902 -24.170558
Li -39.351652 50.002025 -25.152807
Fe -28.057348 60.404185 -32.679887
Li -28.057348 58.814876 -33.474541
Li -29.568871 59.913061 -33.474540
Li -26.545825 59.913061 -33.474540
Li -28.991520 61.689963 -33.474542
Li -28.057348 60.404184 -34.456789
Li -27.123176 61.689963 -33.474542
Li -28.991520 59.118408 -31.885232
Li -27.123176 59.118408 -31.885232
Li -29.568871 60.895308 -31.885233
Li -28.057348 61.993495 -31.885233
Li -28.057348 60.404186 -30.902985
Li -26.545825 60.895308 -31.885233
Fe -35.971784 45.350030 -40.206956
Li -35.971784 45.350029 -41.983857
Li -37.483307 44.858906 -41.001611
Li -35.971784 43.760720 -41.001610
Li -34.460261 44.858906 -41.001611
Li -36.905956 44.064252 -39.412301
Li -35.971784 45.350031 -38.430054
Li -35.037612 44.064252 -39.412301
Li -36.905956 46.635808 -41.001611
Li -35.037612 46.635808 -41.001611
Li -37.483307 45.841154 -39.412302
Li -35.971784 46.939339 -39.412302
Li -34.460261 45.841154 -39.412302
Fe -28.057348 62.975736 -43.573174
Li -29.568871 62.484612 -44.367828
Li -28.057348 61.386427 -44.367829
Li -28.057348 62.975736 -45.350076
Li -28.991520 64.261514 -44.367830
Li -28.991520 61.689959 -42.778520
Li -29.568871 63.466860 -42.778520
Li -28.057348 62.975737 -41.796273
Li -28.057348 64.565046 -42.778521
Li -26.545825 62.484612 -44.367828
Li -27.123176 64.261514 -44.367830
Li -27.123176 61.689959 -42.778520
Li -26.545825 63.466860 -42.778520
Fe -44.820392 57.529098 -32.679886
Li -44.820392 55.939789 -33.474540
Li -46.331915 57.037974 -33.474540
Li -44.820392 57.529097 -34.456788
Li -43.308870 57.037974 -33.474540
Li -45.754565 58.814876 -33.474541
Li -43.886220 58.814876 -33.474541
Li -45.754565 56.243320 -31.885230
Li -43.886220 56.243320 -31.885230
Li -44.820392 57.529099 -30.902984
Li -46.331915 58.020222 -31.885231
Li -44.820392 59.118408 -31.885232
Li -43.308870 58.020222 -31.885231
Fe -44.820392 54.957546 -21.786598
Li -46.331915 54.466423 -22.581252
Li -44.820392 54.957546 -23.563500
Li -43.308870 54.466423 -22.581252
Li -44.820392 53.368237 -22.581252
Li -45.754565 56.243324 -22.581253
Li -43.886220 56.243324 -22.581253
Li -45.754565 53.671769 -20.991943
Li -43.886220 53.671769 -20.991943
Li -44.820392 54.957548 -20.009696
Li -46.331915 55.448671 -20.991943
Li -43.308870 55.448671 -20.991943
Li -44.820392 56.546857 -20.991944
Fe -28.057348 42.778479 -29.313668
Li -28.057348 41.189169 -30.108322
Li -28.991520 41.492701 -28.519013
Li -28.991520 44.064257 -30.108323
Li -28.057348 42.778478 -31.090570
Li -29.568871 42.287355 -30.108323
Li -29.568871 43.269602 -28.519014
Li -28.057348 42.778479 -27.536766
Li -28.057348 44.367788 -28.519014
Li -27.123176 41.492701 -28.519013
Li -26.545825 42.287355 -30.108323
Li -27.123176 44.064257 -30.108323
Li -26.545825 43.269602 -28.519014
Fe -48.777610 56.243320 -31.885230
Li -48.777610 54.654011 -32.679885
Li -48.777610 56.243319 -33.662132
Li -47.266088 55.752196 -32.679884
Li -50.289133 55.752196 -32.679884
Li -49.711783 57.529098 -32.679886
Li -47.843438 57.529098 -32.679886
Li -49.711783 54.957543 -31.090576
Li -47.843438 54.957543 -31.090576
Li -50.289133 56.734444 -31.090576
Li -48.777610 56.243321 -30.108329
Li -48.777610 57.832630 -31.090577
Li -47.266088 56.734444 -31.090576
Fe -48.777610 62.975736 -43.573174
Li -48.777610 62.975736 -45.350076
Li -50.289133 62.484612 -44.367828
Li -48.777610 61.386427 -44.367829
Li -47.266088 62.484612 -44.367828
Li -49.711783 61.689959 -42.778520
Li -50.289133 63.466860 -42.778520
Li -47.843438 61.689959 -42.778520
Li -48.777610 62.975737 -41.796273
Li -47.266088 63.466860 -42.778520
Li -49.711783 64.261514 -44.367830
Li -47.843438 64.261514 -44.367830
Li -48.777610 64.565046 -42.778521
Fe -17.697217 52.877106 -40.206959
Li -19.208740 52.385982 -41.001614
Li -17.697217 51.287797 -41.001613
Li -17.697217 52.877105 -41.983861
Li -16.185694 52.385982 -41.001614
Li -18.631389 51.591328 -39.412304
Li -16.763044 51.591328 -39.412304
Li -17.697217 52.877107 -38.430057
Li -18.631389 54.162884 -41.001614
Li -16.763044 54.162884 -41.001614
Li -19.208740 53.368230 -39.412305
Li -16.185694 53.368230 -39.412305
Li -17.697217 54.466416 -39.412305
Fe -42.374697 40.698041 -40.206954
Li -43.886220 40.206917 -41.001608
Li -42.374697 39.108731 -41.001607
Li -42.374697 40.698040 -41.983855
Li -40.863174 40.206917 -41.001608
Li -41.440525 41.983819 -41.001609
Li -43.308870 41.983819 -41.001609
Li -43.886220 41.189165 -39.412300
Li -43.308870 39.412264 -39.412298
Li -41.440525 39.412264 -39.412298
Li -42.374697 40.698041 -38.430052
Li -40.863174 41.189165 -39.412300
Li -42.374697 42.287350 -39.412300
Fe -29.568871 58.323747 -43.573172
Li -29.568871 56.734438 -44.367826
Li -30.503043 59.609525 -44.367827
Li -31.080394 57.832623 -44.367827
Li -29.568871 58.323747 -45.350074
Li -28.057348 57.832623 -44.367827
Li -28.634698 59.609525 -44.367827
Li -30.503043 57.037970 -42.778517
Li -28.634698 57.037970 -42.778517
Li -29.568871 58.323749 -41.796270
Li -28.057348 58.814871 -42.778518
Li -29.568871 59.913058 -42.778518
Li -31.080394 58.814871 -42.778518
Fe -38.417479 41.983815 -50.305586
Li -39.929002 41.492691 -51.100241
Li -39.351652 40.698037 -49.510931
Li -39.351652 43.269593 -51.100241
Li -39.929002 42.474938 -49.510932
Li -38.417479 41.983814 -52.082488
Li -36.905956 41.492691 -51.100241
Li -37.483307 40.698037 -49.510931
Li -38.417479 40.394506 -51.100240
Li -37.483307 43.269593 -51.100241
Li -38.417479 41.983816 -48.528685
Li -38.417479 43.573124 -49.510933
Li -36.905956 42.474938 -49.510932
Fe -38.417479 41.983826 -25.947457
Li -39.929002 41.492702 -26.742111
Li -39.351652 43.269603 -26.742112
Li -39.351652 40.698048 -25.152802
Li -39.929002 42.474950 -25.152803
Li -38.417479 40.394516 -26.742111
Li -38.417479 41.983825 -27.724359
Li -36.905956 41.492702 -26.742111
Li -37.483307 43.269603 -26.742112
Li -37.483307 40.698048 -25.152802
Li -36.905956 42.474950 -25.152803
Li -38.417479 41.983826 -24.170555
Li -38.417479 43.573135 -25.152803
Fe -42.374697 58.323759 -19.215043
Li -43.886220 57.832635 -20.009697
Li -43.308870 57.037981 -18.420388
Li -43.308870 59.609536 -20.009699
Li -43.886220 58.814883 -18.420388
Li -42.374697 58.323757 -20.991945
Li -42.374697 56.734448 -20.009697
Li -41.440525 59.609536 -20.009699
Li -42.374697 59.913068 -18.420389
Li -41.440525 57.037981 -18.420388
Li -40.863174 57.832635 -20.009697
Li -40.863174 58.814883 -18.420388
Li -42.374697 58.323759 -17.438141
Fe -32.014566 57.529098 -32.679886
Li -32.014566 55.939789 -33.474540
Li -33.526089 57.037974 -33.474540
Li -32.014566 57.529097 -34.456788
Li -32.948738 58.814876 -33.474541
Li -30.503043 57.037974 -33.474540
Li -31.080394 58.814876 -33.474541
Li -32.948738 56.243320 -31.885230
Li -32.014566 57.529099 -30.902984
Li -33.526089 58.020222 -31.885231
Li -32.014566 59.118408 -31.885232
Li -31.080394 56.243320 -31.885230
Li -30.503043 58.020222 -31.885231
Fe -38.417479 46.144686 -36.046091
Li -39.351652 44.858908 -35.251436
Li -39.351652 47.430464 -36.840746
Li -39.929002 45.653562 -36.840746
Li -39.929002 46.635810 -35.251437
Li -38.417479 44.555377 -36.840745
Li -37.483307 44.858908 -35.251436
Li -38.417479 46.144686 -37.822993
Li -36.905956 45.653562 -36.840746
Li -36.905956 46.635810 -35.251437
Li -38.417479 46.144688 -34.269189
Li -37.483307 47.430464 -36.840746
Li -38.417479 47.733996 -35.251437
Fe -44.820392 68.422379 -46.939388
Li -44.820392 66.833069 -47.734042
Li -46.331915 67.931255 -47.734042
Li -43.308870 67.931255 -47.734042
Li -44.820392 68.422377 -48.716289
Li -45.754565 69.708156 -47.734043
Li -43.886220 69.708156 -47.734043
Li -43.886220 67.136601 -46.144733
Li -45.754565 67.136601 -46.144733
Li -46.331915 68.913502 -46.144734
Li -44.820392 70.011688 -46.144734
Li -44.820392 68.422379 -45.162486
Li -43.308870 68.913502 -46.144734
Fe -40.863174 49.510891 -50.305589
Li -40.863174 47.921581 -51.100244
Li -39.351652 49.019766 -51.100244
Li -42.374697 49.019766 -51.100244
Li -41.797347 48.225114 -49.510935
Li -39.929002 48.225114 -49.510935
Li -41.797347 50.796669 -51.100245
Li -40.863174 49.510890 -52.082491
Li -39.929002 50.796669 -51.100245
Li -42.374697 50.002014 -49.510935
Li -40.863174 51.100200 -49.510936
Li -40.863174 49.510891 -48.528689
Li -39.351652 50.002014 -49.510935
Fe -24.100130 50.796675 -36.046093
Li -24.100130 50.796675 -37.822995
Li -23.165958 52.082453 -36.840748
Li -25.034302 52.082453 -36.840748
Li -23.165958 49.510897 -35.251438
Li -25.034302 49.510897 -35.251438
Li -24.100130 49.207366 -36.840747
Li -25.611653 50.305551 -36.840747
Li -24.100130 50.796676 -34.269192
Li -25.611653 51.287799 -35.251439
Li -24.100130 52.385985 -35.251439
Li -22.588607 50.305551 -36.840747
Li -22.588607 51.287799 -35.251439
Fe -40.863174 38.617607 -43.573163
Li -40.863174 37.028297 -44.367817
Li -41.797347 37.331829 -42.778508
Li -39.929002 37.331829 -42.778508
Li -41.797347 39.903385 -44.367819
Li -40.863174 38.617606 -45.350065
Li -39.929002 39.903385 -44.367819
Li -39.351652 38.126483 -44.367818
Li -42.374697 38.126483 -44.367818
Li -39.351652 39.108731 -42.778509
Li -42.374697 39.108731 -42.778509
Li -40.863174 38.617607 -41.796262
Li -40.863174 40.206916 -42.778510
Fe -28.057348 60.404188 -25.152811
Li -29.568871 59.913064 -25.947465
Li -28.057348 58.814879 -25.947465
Li -26.545825 59.913064 -25.947465
Li -28.991520 59.118411 -24.358156
Li -27.123176 59.118411 -24.358156
Li -28.991520 61.689966 -25.947466
Li -28.057348 60.404188 -26.929713
Li -27.123176 61.689966 -25.947466
Li -29.568871 60.895312 -24.358156
Li -28.057348 61.993498 -24.358157
Li -28.057348 60.404189 -23.375909
Li -26.545825 60.895312 -24.358156
Fe -28.057348 38.617611 -36.046088
Li -28.057348 37.028301 -36.840741
Li -28.057348 38.617609 -37.822989
Li -29.568871 39.108734 -35.251434
Li -29.568871 38.126486 -36.840742
Li -28.057348 38.617611 -34.269185
Li -28.991520 37.331833 -35.251432
Li -28.991520 39.903389 -36.840743
Li -28.057348 40.206920 -35.251433
Li -27.123176 39.903389 -36.840743
Li -26.545825 39.108734 -35.251434
Li -26.545825 38.126486 -36.840742
Li -27.123176 37.331833 -35.251432
Fe -48.777610 53.671759 -43.573170
Li -48.777610 52.082450 -44.367824
Li -47.843438 52.385982 -42.778515
Li -49.711783 52.385982 -42.778515
Li -48.777610 53.671758 -45.350072
Li -49.711783 54.957537 -44.367825
Li -50.289133 54.162882 -42.778516
Li -50.289133 53.180635 -44.367825
Li -48.777610 55.261068 -42.778517
Li -47.843438 54.957537 -44.367825
Li -47.266088 54.162882 -42.778516
Li -47.266088 53.180635 -44.367825
Li -48.777610 53.671760 -41.796269
Fe -25.611653 70.502813 -43.573178
Li -25.611653 70.502811 -45.350080
Li -27.123176 70.011689 -44.367832
Li -25.611653 68.913503 -44.367832
Li -26.545825 71.788590 -44.367833
Li -24.677480 71.788590 -44.367833
Li -26.545825 69.217035 -42.778523
Li -24.677480 69.217035 -42.778523
Li -27.123176 70.993936 -42.778524
Li -25.611653 72.092122 -42.778524
Li -25.611653 70.502813 -41.796276
Li -24.100130 70.011689 -44.367832
Li -24.100130 70.993936 -42.778524
Fe -32.014566 50.796672 -43.573169
Li -32.014566 49.207363 -44.367823
Li -33.526089 50.305548 -44.367824
Li -32.014566 50.796671 -45.350071
Li -32.948738 52.082450 -44.367824
Li -32.948738 49.510894 -42.778514
Li -32.014566 52.385982 -42.778515
Li -33.526089 51.287795 -42.778515
Li -32.014566 50.796673 -41.796267
Li -30.503043 50.305548 -44.367824
Li -31.080394 52.082450 -44.367824
Li -31.080394 49.510894 -42.778514
Li -30.503043 51.287795 -42.778515
Fe -32.014566 54.957540 -36.840749
Li -32.014566 54.957540 -38.617651
Li -33.526089 54.466416 -37.635404
Li -32.014566 53.368231 -37.635404
Li -32.948738 56.243318 -37.635405
Li -33.526089 55.448664 -36.046095
Li -32.948738 53.671762 -36.046094
Li -32.014566 54.957541 -35.063848
Li -32.014566 56.546850 -36.046096
Li -30.503043 54.466416 -37.635404
Li -31.080394 56.243318 -37.635405
Li -30.503043 55.448664 -36.046095
Li -31.080394 53.671762 -36.046094
Fe -46.331915 46.144683 -43.573167
Li -47.266088 44.858905 -42.778511
Li -47.266088 47.430461 -44.367822
Li -47.843438 46.635807 -42.778513
Li -47.843438 45.653559 -44.367821
Li -46.331915 44.555374 -44.367821
Li -45.397743 44.858905 -42.778511
Li -46.331915 46.144683 -45.350069
Li -45.397743 47.430461 -44.367822
Li -46.331915 47.733993 -42.778514
Li -46.331915 46.144684 -41.796266
Li -44.820392 45.653559 -44.367821
Li -44.820392 46.635807 -42.778513
Fe -42.374697 47.430464 -36.840746
Li -43.886220 46.939340 -37.635401
Li -43.308870 48.716242 -37.635401
Li -43.308870 46.144686 -36.046091
Li -43.886220 47.921588 -36.046092
Li -42.374697 45.841154 -37.635400
Li -40.863174 46.939340 -37.635401
Li -42.374697 47.430463 -38.617648
Li -41.440525 48.716242 -37.635401
Li -41.440525 46.144686 -36.046091
Li -42.374697 47.430465 -35.063844
Li -42.374697 49.019773 -36.046092
Li -40.863174 47.921588 -36.046092
Fe -59.137742 46.144686 -36.046091
Li -59.137742 44.555377 -36.840745
Li -58.203569 44.858908 -35.251436
Li -60.071914 44.858908 -35.251436
Li -60.649264 46.635810 -35.251437
Li -60.649264 45.653562 -36.840746
Li -59.137742 46.144686 -37.822993
Li -60.071914 47.430464 -36.840746
Li -58.203569 47.430464 -36.840746
Li -59.137742 47.733996 -35.251437
Li -59.137742 46.144688 -34.269189
Li -57.626219 45.653562 -36.840746
Li -57.626219 46.635810 -35.251437
Fe -29.568871 58.323751 -36.046096
Li -31.080394 57.832627 -36.840750
Li -28.057348 57.832627 -36.840750
Li -29.568871 56.734442 -36.840751
Li -29.568871 58.323750 -37.822998
Li -30.503043 59.609529 -36.840752
Li -28.634698 59.609529 -36.840752
Li -30.503043 57.037974 -35.251442
Li -31.080394 58.814874 -35.251442
Li -28.634698 57.037974 -35.251442
Li -29.568871 58.323752 -34.269195
Li -28.057348 58.814874 -35.251442
Li -29.568871 59.913061 -35.251443
Fe -25.611653 52.877109 -32.679883
Li -27.123176 52.385985 -33.474537
Li -25.611653 51.287800 -33.474538
Li -24.100130 52.385985 -33.474537
Li -25.611653 52.877109 -34.456785
Li -26.545825 54.162887 -33.474539
Li -24.677480 54.162887 -33.474539
Li -26.545825 51.591331 -31.885228
Li -24.677480 51.591331 -31.885228
Li -27.123176 53.368233 -31.885229
Li -24.100130 53.368233 -31.885229
Li -25.611653 52.877110 -30.902982
Li -25.611653 54.466419 -31.885230
Fe -21.654435 65.056177 -25.152813
Li -23.165958 64.565053 -25.947467
Li -23.165958 65.547301 -24.358158
Li -21.654435 63.466868 -25.947466
Li -21.654435 65.056177 -26.929714
Li -22.588607 66.341955 -25.947468
Li -20.142912 64.565053 -25.947467
Li -20.720262 66.341955 -25.947468
Li -22.588607 63.770400 -24.358158
Li -21.654435 65.056178 -23.375912
Li -20.720262 63.770400 -24.358158
Li -21.654435 66.645487 -24.358159
Li -20.142912 65.547301 -24.358158
Fe -32.014566 33.170969 -32.679875
Li -33.526089 32.679845 -33.474529
Li -32.948738 34.456747 -33.474530
Li -32.014566 31.581659 -33.474528
Li -32.014566 33.170968 -34.456776
Li -30.503043 32.679845 -33.474529
Li -31.080394 34.456747 -33.474530
Li -32.948738 31.885191 -31.885219
Li -33.526089 33.662093 -31.885221
Li -31.080394 31.885191 -31.885219
Li -32.014566 34.760278 -31.885220
Li -30.503043 33.662093 -31.885221
Li -32.014566 33.170969 -30.902972
Fe -35.971784 49.510894 -42.778514
Li -35.971784 49.510893 -44.555416
Li -35.971784 47.921585 -43.573168
Li -36.905956 48.225117 -41.983859
Li -35.037612 48.225117 -41.983859
Li -36.905956 50.796672 -43.573169
Li -37.483307 49.019770 -43.573168
Li -37.483307 50.002017 -41.983860
Li -35.971784 51.100204 -41.983860
Li -35.971784 49.510895 -41.001612
Li -35.037612 50.796672 -43.573169
Li -34.460261 50.002017 -41.983860
Li -34.460261 49.019770 -43.573168
Fe -34.460261 54.162890 -25.947463
Li -34.460261 52.573580 -26.742117
Li -35.971784 53.671767 -26.742117
Li -35.394434 55.448668 -26.742118
Li -34.460261 54.162889 -27.724364
Li -32.948738 53.671767 -26.742117
Li -33.526089 55.448668 -26.742118
Li -35.971784 54.654014 -25.152808
Li -35.394434 52.877112 -25.152808
Li -34.460261 55.752199 -25.152809
Li -34.460261 54.162891 -24.170561
Li -33.526089 52.877112 -25.152808
Li -32.948738 54.654014 -25.152808
Fe -59.137742 52.877106 -40.206959
Li -60.649264 52.385982 -41.001614
Li -59.137742 52.877105 -41.983861
Li -59.137742 51.287797 -41.001613
Li -57.626219 52.385982 -41.001614
Li -58.203569 51.591328 -39.412304
Li -60.071914 51.591328 -39.412304
Li -59.137742 52.877107 -38.430057
Li -60.071914 54.162884 -41.001614
Li -58.203569 54.162884 -41.001614
Li -60.649264 53.368230 -39.412305
Li -59.137742 54.466416 -39.412305
Li -57.626219 53.368230 -39.412305
Fe -38.417479 57.037981 -18.420388
Li -39.351652 55.752203 -17.625733
Li -39.351652 58.323759 -19.215043
Li -39.929002 56.546857 -19.215042
Li -39.929002 57.529105 -17.625733
Li -38.417479 55.448671 -19.215042
Li -37.483307 55.752203 -17.625733
Li -38.417479 57.037980 -20.197290
Li -36.905956 56.546857 -19.215042
Li -36.905956 57.529105 -17.625733
Li -37.483307 58.323759 -19.215043
Li -38.417479 58.627291 -17.625734
Li -38.417479 57.037982 -16.643486
Fe -40.863174 67.136608 -29.313679
Li -41.797347 65.850831 -28.519024
Li -42.374697 66.645484 -30.108333
Li -42.374697 67.627732 -28.519024
Li -40.863174 67.136607 -31.090581
Li -39.351652 66.645484 -30.108333
Li -40.863174 65.547298 -30.108333
Li -39.351652 67.627732 -28.519024
Li -39.929002 65.850831 -28.519024
Li -40.863174 67.136609 -27.536777
Li -41.797347 68.422386 -30.108334
Li -39.929002 68.422386 -30.108334
Li -40.863174 68.725918 -28.519025
Fe -28.057348 45.350030 -40.206956
Li -29.568871 44.858906 -41.001611
Li -28.057348 43.760720 -41.001610
Li -28.057348 45.350029 -41.983857
Li -26.545825 44.858906 -41.001611
Li -28.057348 45.350031 -38.430054
Li -28.991520 44.064252 -39.412301
Li -27.123176 44.064252 -39.412301
Li -28.991520 46.635808 -41.001611
Li -27.123176 46.635808 -41.001611
Li -29.568871 45.841154 -39.412302
Li -28.057348 46.939339 -39.412302
Li -26.545825 45.841154 -39.412302
Fe -51.223306 59.609529 -36.840752
Li -51.223306 58.020219 -37.635406
Li -52.734828 60.100652 -36.046098
Li -51.223306 59.609528 -38.617654
Li -52.734828 59.118405 -37.635405
Li -52.157478 58.323751 -36.046096
Li -51.223306 59.609530 -35.063850
Li -49.711783 59.118405 -37.635405
Li -49.711783 60.100652 -36.046098
Li -50.289133 58.323751 -36.046096
Li -52.157478 60.895307 -37.635407
Li -51.223306 61.198839 -36.046098
Li -50.289133 60.895307 -37.635407
Fe -44.820392 50.796683 -19.215040
Li -45.754565 52.082460 -20.009695
Li -46.331915 50.305559 -20.009694
Li -46.331915 51.287807 -18.420385
Li -45.754565 49.510905 -18.420385
Li -44.820392 50.796681 -20.991942
Li -43.886220 52.082460 -20.009695
Li -44.820392 49.207373 -20.009694
Li -43.308870 50.305559 -20.009694
Li -43.308870 51.287807 -18.420385
Li -44.820392 52.385992 -18.420386
Li -43.886220 49.510905 -18.420385
Li -44.820392 50.796683 -17.438138
Fe -55.180524 47.430471 -21.786595
Li -55.180524 47.430469 -23.563496
Li -55.180524 45.841161 -22.581248
Li -56.114696 48.716249 -22.581250
Li -56.692046 46.939347 -22.581248
Li -56.692046 47.921595 -20.991940
Li -55.180524 49.019780 -20.991940
Li -56.114696 46.144693 -20.991939
Li -55.180524 47.430471 -20.009692
Li -54.246351 48.716249 -22.581250
Li -53.669001 46.939347 -22.581248
Li -54.246351 46.144693 -20.991939
Li -53.669001 47.921595 -20.991940
Fe -48.777610 60.404182 -40.206962
Li -48.777610 58.814872 -41.001617
Li -50.289133 59.913057 -41.001617
Li -47.266088 59.913057 -41.001617
Li -49.711783 61.689960 -41.001618
Li -48.777610 60.404181 -41.983864
Li -47.843438 61.689960 -41.001618
Li -49.711783 59.118405 -39.412308
Li -47.843438 59.118405 -39.412308
Li -50.289133 60.895305 -39.412308
Li -47.266088 60.895305 -39.412308
Li -48.777610 61.993492 -39.412309
Li -48.777610 60.404183 -38.430061
Fe -44.820392 50.796675 -36.046093
Li -44.820392 49.207366 -36.840747
Li -44.820392 50.796675 -37.822995
Li -45.754565 52.082453 -36.840748
Li -43.886220 52.082453 -36.840748
Li -46.331915 50.305551 -36.840747
Li -45.754565 49.510897 -35.251438
Li -46.331915 51.287799 -35.251439
Li -43.308870 50.305551 -36.840747
Li -43.886220 49.510897 -35.251438
Li -44.820392 50.796676 -34.269192
Li -43.308870 51.287799 -35.251439
Li -44.820392 52.385985 -35.251439
Fe -48.777610 56.243324 -22.581253
Li -49.711783 54.957546 -21.786598
Li -50.289133 55.752201 -23.375907
Li -47.266088 55.752201 -23.375907
Li -47.843438 54.957546 -21.786598
Li -48.777610 54.654014 -23.375907
Li -50.289133 56.734449 -21.786598
Li -49.711783 57.529102 -23.375908
Li -47.266088 56.734449 -21.786598
Li -47.843438 57.529102 -23.375908
Li -48.777610 56.243323 -24.358155
Li -48.777610 57.832634 -21.786599
Li -48.777610 56.243325 -20.804351
Fe -28.057348 53.671759 -43.573170
Li -28.057348 52.082450 -44.367824
Li -28.991520 52.385982 -42.778515
Li -27.123176 52.385982 -42.778515
Li -28.057348 53.671758 -45.350072
Li -29.568871 53.180635 -44.367825
Li -29.568871 54.162882 -42.778516
Li -28.991520 54.957537 -44.367825
Li -28.057348 55.261068 -42.778517
Li -28.057348 53.671760 -41.796269
Li -26.545825 53.180635 -44.367825
Li -27.123176 54.957537 -44.367825
Li -26.545825 54.162882 -42.778516
Fe -24.100130 48.225120 -32.679881
Li -24.100130 46.635811 -33.474535
Li -24.100130 48.225120 -34.456783
Li -25.611653 47.733996 -33.474536
Li -25.034302 49.510898 -33.474536
Li -23.165958 49.510898 -33.474536
Li -22.588607 47.733996 -33.474536
Li -23.165958 46.939343 -31.885226
Li -25.034302 46.939343 -31.885226
Li -24.100130 48.225122 -30.902979
Li -25.611653 48.716244 -31.885227
Li -24.100130 49.814431 -31.885227
Li -22.588607 48.716244 -31.885227
Fe -40.863174 67.136604 -36.840755
Li -41.797347 65.850827 -36.046100
Li -42.374697 66.645481 -37.635409
Li -42.374697 67.627728 -36.046101
Li -40.863174 65.547295 -37.635409
Li -39.929002 65.850827 -36.046100
Li -39.351652 66.645481 -37.635409
Li -40.863174 67.136604 -38.617657
Li -39.351652 67.627728 -36.046101
Li -40.863174 67.136606 -35.063853
Li -41.797347 68.422382 -37.635410
Li -39.929002 68.422382 -37.635410
Li -40.863174 68.725914 -36.046101
Fe -42.374697 65.056177 -25.152813
Li -42.374697 63.466868 -25.947466
Li -43.886220 64.565053 -25.947467
Li -43.308870 66.341955 -25.947468
Li -42.374697 65.056177 -26.929714
Li -41.440525 66.341955 -25.947468
Li -40.863174 64.565053 -25.947467
Li -43.308870 63.770400 -24.358158
Li -43.886220 65.547301 -24.358158
Li -42.374697 65.056178 -23.375912
Li -41.440525 63.770400 -24.358158
Li -42.374697 66.645487 -24.358159
Li -40.863174 65.547301 -24.358158
Fe -28.057348 42.778482 -21.786592
Li -28.057348 41.189173 -22.581247
Li -28.991520 41.492704 -20.991937
Li -28.057348 42.778481 -23.563494
Li -28.991520 44.064260 -22.581248
Li -29.568871 42.287358 -22.581246
Li -29.568871 43.269606 -20.991938
Li -28.057348 44.367791 -20.991938
Li -28.057348 42.778483 -20.009691
Li -27.123176 41.492704 -20.991937
Li -26.545825 42.287358 -22.581246
Li -27.123176 44.064260 -22.581248
Li -26.545825 43.269606 -20.991938
Fe -28.057348 49.510898 -33.474536
Li -29.568871 49.019774 -34.269191
Li -28.057348 47.921588 -34.269190
Li -28.057348 49.510897 -35.251438
Li -28.991520 50.796676 -34.269192
Li -26.545825 49.019774 -34.269191
Li -27.123176 50.796676 -34.269192
Li -28.991520 48.225120 -32.679881
Li -29.568871 50.002022 -32.679882
Li -28.057348 51.100208 -32.679882
Li -28.057348 49.510899 -31.697634
Li -27.123176 48.225120 -32.679881
Li -26.545825 50.002022 -32.679882
Fe -51.223306 46.144686 -36.046091
Li -51.223306 44.555377 -36.840745
Li -52.157478 44.858908 -35.251436
Li -50.289133 44.858908 -35.251436
Li -51.223306 46.144686 -37.822993
Li -52.734828 46.635810 -35.251437
Li -51.223306 46.144688 -34.269189
Li -52.157478 47.430464 -36.840746
Li -52.734828 45.653562 -36.840746
Li -51.223306 47.733996 -35.251437
Li -50.289133 47.430464 -36.840746
Li -49.711783 45.653562 -36.840746
Li -49.711783 46.635810 -35.251437
Fe -34.460261 47.430460 -46.144723
Li -34.460261 47.430459 -47.921625
Li -35.971784 46.939336 -46.939378
Li -35.394434 46.144683 -45.350069
Li -35.394434 48.716238 -46.939379
Li -35.971784 47.921583 -45.350069
Li -34.460261 45.841151 -46.939378
Li -34.460261 49.019770 -45.350070
Li -33.526089 46.144683 -45.350069
Li -32.948738 46.939336 -46.939378
Li -32.948738 47.921583 -45.350069
Li -33.526089 48.716238 -46.939379
Li -34.460261 47.430461 -44.367822
Fe -51.223306 63.770393 -39.412310
Li -51.223306 62.181083 -40.206964
Li -52.734828 63.279270 -40.206964
Li -52.157478 65.056170 -40.206965
Li -51.223306 63.770392 -41.189211
Li -49.711783 63.279270 -40.206964
Li -50.289133 65.056170 -40.206965
Li -52.157478 62.484615 -38.617655
Li -51.223306 63.770394 -37.635408
Li -52.734828 64.261517 -38.617656
Li -51.223306 65.359702 -38.617656
Li -50.289133 62.484615 -38.617655
Li -49.711783 64.261517 -38.617656
Fe -35.971784 56.243313 -46.939382
Li -35.971784 56.243313 -48.716284
Li -37.483307 55.752189 -47.734037
Li -35.971784 54.654004 -47.734036
Li -37.483307 56.734437 -46.144728
Li -36.905956 54.957536 -46.144727
Li -35.971784 56.243315 -45.162480
Li -35.037612 54.957536 -46.144727
Li -34.460261 55.752189 -47.734037
Li -34.460261 56.734437 -46.144728
Li -36.905956 57.529091 -47.734037
Li -35.971784 57.832623 -46.144728
Li -35.037612 57.529091 -47.734037
Fe -44.820392 44.064260 -22.581248
Li -44.820392 42.474950 -23.375901
Li -44.820392 44.064259 -24.358149
Li -43.886220 45.350037 -23.375902
Li -45.754565 45.350037 -23.375902
Li -43.308870 44.555384 -21.786594
Li -46.331915 43.573136 -23.375901
Li -46.331915 44.555384 -21.786594
Li -43.308870 43.573136 -23.375901
Li -45.754565 42.778482 -21.786592
Li -43.886220 42.778482 -21.786592
Li -44.820392 44.064260 -20.804345
Li -44.820392 45.653569 -21.786593
Fe -29.568871 47.430467 -29.313670
Li -31.080394 46.939344 -30.108324
Li -30.503043 48.716245 -30.108326
Li -28.057348 46.939344 -30.108324
Li -29.568871 45.841157 -30.108324
Li -29.568871 47.430466 -31.090572
Li -28.634698 48.716245 -30.108326
Li -30.503043 46.144690 -28.519015
Li -28.634698 46.144690 -28.519015
Li -31.080394 47.921591 -28.519016
Li -29.568871 49.019777 -28.519016
Li -28.057348 47.921591 -28.519016
Li -29.568871 47.430468 -27.536768
Fe -44.820392 61.689959 -42.778520
Li -46.331915 61.198835 -43.573174
Li -44.820392 61.689958 -44.555421
Li -45.754565 62.975736 -43.573174
Li -43.886220 62.975736 -43.573174
Li -43.308870 61.198835 -43.573174
Li -45.754565 60.404181 -41.983864
Li -46.331915 62.181083 -41.983866
Li -44.820392 60.100649 -43.573173
Li -43.886220 60.404181 -41.983864
Li -44.820392 61.689960 -41.001618
Li -43.308870 62.181083 -41.983866
Li -44.820392 63.279268 -41.983865
Fe -34.460261 58.323747 -43.573172
Li -35.971784 57.832623 -44.367827
Li -35.394434 59.609525 -44.367827
Li -34.460261 56.734438 -44.367826
Li -32.948738 57.832623 -44.367827
Li -34.460261 58.323747 -45.350074
Li -33.526089 59.609525 -44.367827
Li -35.394434 57.037970 -42.778517
Li -35.971784 58.814871 -42.778518
Li -33.526089 57.037970 -42.778517
Li -34.460261 59.913058 -42.778518
Li -34.460261 58.323749 -41.796270
Li -32.948738 58.814871 -42.778518
Fe -44.820392 37.331840 -18.420379
Li -46.331915 36.840717 -19.215033
Li -44.820392 35.742530 -19.215033
Li -44.820392 37.331839 -20.197281
Li -43.308870 36.840717 -19.215033
Li -45.754565 38.617618 -19.215035
Li -43.886220 38.617618 -19.215035
Li -43.886220 36.046063 -17.625724
Li -45.754565 36.046063 -17.625724
Li -44.820392 37.331841 -16.643477
Li -43.308870 37.822964 -17.625725
Li -46.331915 37.822964 -17.625725
Li -44.820392 38.921150 -17.625725
Fe -30.503043 59.609535 -21.786600
Li -32.014566 59.118411 -22.581254
Li -31.437216 58.323757 -20.991945
Li -30.503043 58.020226 -22.581253
Li -30.503043 59.609535 -23.563501
Li -28.991520 59.118411 -22.581254
Li -29.568871 58.323757 -20.991945
Li -30.503043 59.609536 -20.009699
Li -31.437216 60.895313 -22.581255
Li -32.014566 60.100659 -20.991945
Li -29.568871 60.895313 -22.581255
Li -28.991520 60.100659 -20.991945
Li -30.503043 61.198845 -20.991946
Fe -38.417479 52.877109 -32.679883
Li -39.929002 52.385985 -33.474537
Li -38.417479 52.877109 -34.456785
Li -38.417479 51.287800 -33.474538
Li -36.905956 52.385985 -33.474537
Li -39.351652 54.162887 -33.474539
Li -37.483307 54.162887 -33.474539
Li -39.351652 51.591331 -31.885228
Li -37.483307 51.591331 -31.885228
Li -39.929002 53.368233 -31.885229
Li -38.417479 52.877110 -30.902982
Li -36.905956 53.368233 -31.885229
Li -38.417479 54.466419 -31.885230
Fe -32.014566 48.225117 -40.206957
Li -33.526089 47.733993 -41.001612
Li -32.014566 46.635808 -41.001611
Li -32.014566 48.225117 -41.983859
Li -32.948738 49.510895 -41.001612
Li -32.948738 46.939339 -39.412302
Li -32.014566 48.225118 -38.430056
Li -33.526089 48.716241 -39.412303
Li -32.014566 49.814427 -39.412304
Li -30.503043 47.733993 -41.001612
Li -31.080394 49.510895 -41.001612
Li -31.080394 46.939339 -39.412302
Li -30.503043 48.716241 -39.412303
Fe -24.100130 57.529098 -32.679886
Li -24.100130 55.939789 -33.474540
Li -25.611653 57.037974 -33.474540
Li -24.100130 57.529097 -34.456788
Li -23.165958 58.814876 -33.474541
Li -25.034302 58.814876 -33.474541
Li -22.588607 57.037974 -33.474540
Li -25.034302 56.243320 -31.885230
Li -23.165958 56.243320 -31.885230
Li -24.100130 57.529099 -30.902984
Li -25.611653 58.020222 -31.885231
Li -24.100130 59.118408 -31.885232
Li -22.588607 58.020222 -31.885231
Fe -21.654435 40.698045 -32.679878
Li -23.165958 40.206921 -33.474533
Li -21.654435 39.108735 -33.474532
Li -21.654435 40.698043 -34.456779
Li -20.142912 40.206921 -33.474533
Li -22.588607 41.983823 -33.474533
Li -20.720262 41.983823 -33.474533
Li -23.165958 41.189168 -31.885224
Li -21.654435 40.698045 -30.902976
Li -22.588607 39.412267 -31.885223
Li -20.720262 39.412267 -31.885223
Li -20.142912 41.189168 -31.885224
Li -21.654435 42.287354 -31.885224
Fe -48.777610 52.082459 -21.786597
Li -50.289133 51.591336 -22.581251
Li -47.266088 51.591336 -22.581251
Li -48.777610 52.082459 -23.563498
Li -48.777610 50.493150 -22.581250
Li -50.289133 52.573584 -20.991942
Li -49.711783 50.796681 -20.991942
Li -48.777610 52.082460 -20.009695
Li -47.843438 50.796681 -20.991942
Li -47.266088 52.573584 -20.991942
Li -49.711783 53.368237 -22.581252
Li -47.843438 53.368237 -22.581252
Li -48.777610 53.671769 -20.991943
Fe -34.460261 36.537176 -39.412297
Li -34.460261 36.537175 -41.189199
Li -35.971784 37.028300 -38.617643
Li -35.971784 36.046052 -40.206952
Li -34.460261 34.947866 -40.206951
Li -35.394434 35.251399 -38.617642
Li -32.948738 37.028300 -38.617643
Li -32.948738 36.046052 -40.206952
Li -33.526089 35.251399 -38.617642
Li -34.460261 36.537177 -37.635395
Li -35.394434 37.822954 -40.206953
Li -33.526089 37.822954 -40.206953
Li -34.460261 38.126486 -38.617643
Fe -46.331915 59.609535 -21.786600
Li -47.843438 59.118411 -22.581254
Li -47.266088 58.323757 -20.991945
Li -47.266088 60.895313 -22.581255
Li -47.843438 60.100659 -20.991945
Li -46.331915 58.020226 -22.581253
Li -46.331915 59.609535 -23.563501
Li -44.820392 59.118411 -22.581254
Li -45.397743 58.323757 -20.991945
Li -46.331915 59.609536 -20.009699
Li -45.397743 60.895313 -22.581255
Li -46.331915 61.198845 -20.991946
Li -44.820392 60.100659 -20.991945
Fe -28.057348 67.136608 -29.313679
Li -28.057348 65.547298 -30.108333
Li -28.991520 65.850831 -28.519024
Li -29.568871 66.645484 -30.108333
Li -29.568871 67.627732 -28.519024
Li -28.057348 67.136607 -31.090581
Li -28.057348 67.136609 -27.536777
Li -26.545825 66.645484 -30.108333
Li -27.123176 65.850831 -28.519024
Li -26.545825 67.627732 -28.519024
Li -28.991520 68.422386 -30.108334
Li -27.123176 68.422386 -30.108334
Li -28.057348 68.725918 -28.519025
Fe -38.417479 46.144683 -43.573167
Li -39.351652 44.858905 -42.778511
Li -39.351652 47.430461 -44.367822
Li -39.929002 45.653559 -44.367821
Li -39.929002 46.635807 -42.778513
Li -38.417479 44.555374 -44.367821
Li -37.483307 44.858905 -42.778511
Li -38.417479 46.144683 -45.350069
Li -37.483307 47.430461 -44.367822
Li -38.417479 47.733993 -42.778514
Li -36.905956 45.653559 -44.367821
Li -36.905956 46.635807 -42.778513
Li -38.417479 46.144684 -41.796266
Fe -32.014566 61.689963 -33.474542
Li -32.014566 61.689962 -35.251444
Li -33.526089 61.198839 -34.269196
Li -32.014566 60.100654 -34.269196
Li -32.948738 60.404185 -32.679887
Li -32.948738 62.975741 -34.269197
Li -32.014566 63.279273 -32.679888
Li -33.526089 62.181086 -32.679888
Li -30.503043 61.198839 -34.269196
Li -31.080394 60.404185 -32.679887
Li -31.080394 62.975741 -34.269197
Li -30.503043 62.181086 -32.679888
Li -32.014566 61.689964 -31.697640
Fe -59.137742 59.609535 -21.786600
Li -60.649264 59.118411 -22.581254
Li -59.137742 59.609535 -23.563501
Li -59.137742 58.020226 -22.581253
Li -57.626219 59.118411 -22.581254
Li -59.137742 59.609536 -20.009699
Li -60.071914 58.323757 -20.991945
Li -58.203569 58.323757 -20.991945
Li -60.649264 60.100659 -20.991945
Li -60.071914 60.895313 -22.581255
Li -58.203569 60.895313 -22.581255
Li -59.137742 61.198845 -20.991946
Li -57.626219 60.100659 -20.991945
Fe -38.417479 70.502816 -36.046102
Li -39.929002 70.011692 -36.840756
Li -39.351652 71.788593 -36.840757
Li -39.351652 69.217038 -35.251447
Li -39.929002 70.993940 -35.251448
Li -38.417479 70.502815 -37.823004
Li -37.483307 71.788593 -36.840757
Li -36.905956 70.011692 -36.840756
Li -38.417479 68.913506 -36.840756
Li -37.483307 69.217038 -35.251447
Li -36.905956 70.993940 -35.251448
Li -38.417479 72.092125 -35.251448
Li -38.417479 70.502816 -34.269200
Fe -34.460261 51.591328 -39.412304
Li -34.460261 51.591328 -41.189206
Li -35.971784 51.100204 -40.206959
Li -35.971784 52.082452 -38.617650
Li -35.394434 52.877106 -40.206959
Li -35.394434 50.305551 -38.617649
Li -34.460261 50.002019 -40.206958
Li -34.460261 51.591329 -37.635402
Li -33.526089 50.305551 -38.617649
Li -33.526089 52.877106 -40.206959
Li -32.948738 51.100204 -40.206959
Li -32.948738 52.082452 -38.617650
Li -34.460261 53.180638 -38.617650
Fe -55.180524 51.591328 -39.412304
Li -56.692046 51.100204 -40.206959
Li -55.180524 51.591328 -41.189206
Li -56.114696 52.877106 -40.206959
Li -55.180524 50.002019 -40.206958
Li -56.114696 50.305551 -38.617649
Li -55.180524 51.591329 -37.635402
Li -56.692046 52.082452 -38.617650
Li -54.246351 52.877106 -40.206959
Li -54.246351 50.305551 -38.617649
Li -53.669001 51.100204 -40.206959
Li -53.669001 52.082452 -38.617650
Li -55.180524 53.180638 -38.617650
Fe -48.777610 67.136611 -21.786603
Li -50.289133 66.645487 -22.581257
Li -48.777610 67.136611 -23.563505
Li -48.777610 65.547302 -22.581257
Li -47.266088 66.645487 -22.581257
Li -49.711783 65.850834 -20.991949
Li -47.843438 65.850834 -20.991949
Li -50.289133 67.627735 -20.991949
Li -48.777610 67.136612 -20.009702
Li -47.266088 67.627735 -20.991949
Li -49.711783 68.422389 -22.581259
Li -47.843438 68.422389 -22.581259
Li -48.777610 68.725921 -20.991950
Fe -34.460261 40.698048 -25.152802
Li -35.971784 40.206924 -25.947456
Li -34.460261 39.108739 -25.947456
Li -34.460261 40.698047 -26.929704
Li -32.948738 40.206924 -25.947456
Li -35.394434 41.983826 -25.947457
Li -33.526089 41.983826 -25.947457
Li -35.394434 39.412270 -24.358147
Li -35.971784 41.189172 -24.358148
Li -34.460261 40.698049 -23.375900
Li -33.526089 39.412270 -24.358147
Li -32.948738 41.189172 -24.358148
Li -34.460261 42.287357 -24.358148
Fe -51.223306 59.609532 -29.313676
Li -51.223306 58.020223 -30.108330
Li -52.734828 59.118408 -30.108330
Li -51.223306 59.609531 -31.090578
Li -52.157478 58.323754 -28.519021
Li -51.223306 59.609533 -27.536774
Li -49.711783 59.118408 -30.108330
Li -50.289133 58.323754 -28.519021
Li -52.157478 60.895310 -30.108331
Li -52.734828 60.100656 -28.519021
Li -51.223306 61.198842 -28.519022
Li -50.289133 60.895310 -30.108331
Li -49.711783 60.100656 -28.519021
Fe -21.654435 54.162890 -25.947463
Li -21.654435 52.573580 -26.742117
Li -23.165958 53.671767 -26.742117
Li -23.165958 54.654014 -25.152808
Li -21.654435 54.162889 -27.724364
Li -20.720262 55.448668 -26.742118
Li -22.588607 55.448668 -26.742118
Li -20.142912 53.671767 -26.742117
Li -22.588607 52.877112 -25.152808
Li -21.654435 54.162891 -24.170561
Li -21.654435 55.752199 -25.152809
Li -20.720262 52.877112 -25.152808
Li -20.142912 54.654014 -25.152808
Fe -38.417479 52.877102 -49.510937
Li -39.351652 51.591324 -48.716282
Li -39.929002 52.385978 -50.305592
Li -38.417479 52.877101 -51.287838
Li -36.905956 52.385978 -50.305592
Li -38.417479 51.287792 -50.305591
Li -37.483307 51.591324 -48.716282
Li -38.417479 52.877103 -47.734035
Li -39.929002 53.368226 -48.716283
Li -39.351652 54.162879 -50.305592
Li -38.417479 54.466411 -48.716283
Li -37.483307 54.162879 -50.305592
Li -36.905956 53.368226 -48.716283
Fe -48.777610 45.350037 -25.152804
Li -48.777610 45.350035 -26.929706
Li -47.266088 44.858913 -25.947458
Li -48.777610 43.760727 -25.947458
Li -50.289133 44.858913 -25.947458
Li -47.843438 46.635815 -25.947460
Li -49.711783 46.635815 -25.947460
Li -49.711783 44.064259 -24.358149
Li -48.777610 45.350037 -23.375902
Li -47.843438 44.064259 -24.358149
Li -50.289133 45.841161 -24.358150
Li -48.777610 46.939346 -24.358150
Li -47.266088 45.841161 -24.358150
Fe -32.014566 72.583250 -32.679893
Li -33.526089 72.092126 -33.474547
Li -32.948738 73.869027 -33.474547
Li -32.014566 72.583249 -34.456794
Li -30.503043 72.092126 -33.474547
Li -32.014566 70.993940 -33.474546
Li -31.080394 73.869027 -33.474547
Li -32.948738 71.297472 -31.885237
Li -33.526089 73.074374 -31.885238
Li -31.080394 71.297472 -31.885237
Li -32.014566 72.583251 -30.902991
Li -30.503043 73.074374 -31.885238
Li -32.014566 74.172559 -31.885238
Fe -34.460261 65.056177 -25.152813
Li -34.460261 63.466868 -25.947466
Li -35.971784 64.565053 -25.947467
Li -35.394434 66.341955 -25.947468
Li -34.460261 65.056177 -26.929714
Li -32.948738 64.565053 -25.947467
Li -33.526089 66.341955 -25.947468
Li -35.394434 63.770400 -24.358158
Li -33.526089 63.770400 -24.358158
Li -35.971784 65.547301 -24.358158
Li -34.460261 65.056178 -23.375912
Li -32.948738 65.547301 -24.358158
Li -34.460261 66.645487 -24.358159
Fe -32.014566 33.170972 -25.152799
Li -33.526089 32.679849 -25.947453
Li -32.948738 34.456750 -25.947454
Li -32.014566 31.581662 -25.947453
Li -32.014566 33.170971 -26.929700
Li -31.080394 34.456750 -25.947454
Li -30.503043 32.679849 -25.947453
Li -32.948738 31.885194 -24.358144
Li -33.526089 33.662096 -24.358145
Li -31.080394 31.885194 -24.358144
Li -32.014566 33.170973 -23.375897
Li -32.014566 34.760281 -24.358145
Li -30.503043 33.662096 -24.358145
Fe -52.734828 54.957540 -36.840749
Li -54.246351 54.466416 -37.635404
Li -53.669001 56.243318 -37.635405
Li -52.734828 53.368231 -37.635404
Li -51.223306 54.466416 -37.635404
Li -52.734828 54.957540 -38.617651
Li -51.800656 56.243318 -37.635405
Li -53.669001 53.671762 -36.046094
Li -54.246351 55.448664 -36.046095
Li -52.734828 54.957541 -35.063848
Li -51.800656 53.671762 -36.046094
Li -51.223306 55.448664 -36.046095
Li -52.734828 56.546850 -36.046096
Fe -40.863174 56.243313 -46.939382
Li -40.863174 56.243313 -48.716284
Li -42.374697 55.752189 -47.734037
Li -41.797347 54.957536 -46.144727
Li -40.863174 54.654004 -47.734036
Li -39.351652 55.752189 -47.734037
Li -39.929002 54.957536 -46.144727
Li -40.863174 56.243315 -45.162480
Li -41.797347 57.529091 -47.734037
Li -42.374697 56.734437 -46.144728
Li -39.929002 57.529091 -47.734037
Li -39.351652 56.734437 -46.144728
Li -40.863174 57.832623 -46.144728
Fe -44.820392 54.957533 -53.671803
Li -45.754565 56.243310 -54.466458
Li -46.331915 54.466409 -54.466458
Li -44.820392 53.368223 -54.466457
Li -43.308870 54.466409 -54.466458
Li -44.820392 54.957532 -55.448704
Li -43.886220 56.243310 -54.466458
Li -46.331915 55.448657 -52.877149
Li -45.754565 53.671755 -52.877148
Li -44.820392 56.546842 -52.877149
Li -44.820392 54.957533 -51.894902
Li -43.308870 55.448657 -52.877149
Li -43.886220 53.671755 -52.877148
Fe -48.777610 45.350033 -32.679880
Li -50.289133 44.858910 -33.474534
Li -48.777610 45.350032 -34.456782
Li -48.777610 43.760723 -33.474534
Li -47.266088 44.858910 -33.474534
Li -49.711783 46.635811 -33.474535
Li -47.843438 46.635811 -33.474535
Li -49.711783 44.064255 -31.885225
Li -47.843438 44.064255 -31.885225
Li -48.777610 45.350034 -30.902978
Li -50.289133 45.841157 -31.885226
Li -47.266088 45.841157 -31.885226
Li -48.777610 46.939343 -31.885226
Fe -59.137742 52.877109 -32.679883
Li -60.649264 52.385985 -33.474537
Li -59.137742 51.287800 -33.474538
Li -59.137742 52.877109 -34.456785
Li -57.626219 52.385985 -33.474537
Li -58.203569 54.162887 -33.474539
Li -60.071914 54.162887 -33.474539
Li -60.071914 51.591331 -31.885228
Li -58.203569 51.591331 -31.885228
Li -60.649264 53.368233 -31.885229
Li -59.137742 52.877110 -30.902982
Li -59.137742 54.466419 -31.885230
Li -57.626219 53.368233 -31.885229
Fe -24.100130 57.529101 -25.152810
Li -24.100130 55.939792 -25.947463
Li -25.611653 57.037977 -25.947464
Li -24.100130 57.529101 -26.929711
Li -23.165958 58.814879 -25.947465
Li -25.034302 58.814879 -25.947465
Li -23.165958 56.243323 -24.358155
Li -25.034302 56.243323 -24.358155
Li -24.100130 57.529102 -23.375908
Li -25.611653 58.020225 -24.358155
Li -24.100130 59.118411 -24.358156
Li -22.588607 57.037977 -25.947464
Li -22.588607 58.020225 -24.358155
Fe -59.137742 52.877112 -25.152808
Li -60.649264 52.385989 -25.947462
Li -59.137742 51.287803 -25.947462
Li -57.626219 52.385989 -25.947462
Li -60.071914 51.591334 -24.358152
Li -58.203569 51.591334 -24.358152
Li -59.137742 52.877112 -26.929710
Li -60.071914 54.162890 -25.947463
Li -58.203569 54.162890 -25.947463
Li -60.649264 53.368237 -24.358153
Li -59.137742 54.466422 -24.358154
Li -59.137742 52.877114 -23.375906
Li -57.626219 53.368237 -24.358153
Fe -38.417479 52.877120 -8.321755
Li -39.351652 51.591342 -7.527099
Li -39.929002 52.385996 -9.116408
Li -37.483307 51.591342 -7.527099
Li -38.417479 51.287811 -9.116407
Li -36.905956 52.385996 -9.116408
Li -39.351652 54.162897 -9.116409
Li -39.929002 53.368244 -7.527100
Li -36.905956 53.368244 -7.527100
Li -38.417479 52.877119 -10.098655
Li -37.483307 54.162897 -9.116409
Li -38.417479 54.466429 -7.527100
Li -38.417479 52.877121 -6.544852
Fe -38.417479 59.609535 -21.786600
Li -39.929002 59.118411 -22.581254
Li -39.351652 58.323757 -20.991945
Li -39.351652 60.895313 -22.581255
Li -39.929002 60.100659 -20.991945
Li -38.417479 59.609535 -23.563501
Li -36.905956 59.118411 -22.581254
Li -38.417479 58.020226 -22.581253
Li -37.483307 58.323757 -20.991945
Li -38.417479 59.609536 -20.009699
Li -37.483307 60.895313 -22.581255
Li -36.905956 60.100659 -20.991945
Li -38.417479 61.198845 -20.991946
Fe -25.611653 41.983829 -18.420382
Li -26.545825 40.698051 -17.625726
Li -27.123176 41.492705 -19.215035
Li -25.611653 40.394519 -19.215035
Li -24.677480 40.698051 -17.625726
Li -24.100130 41.492705 -19.215035
Li -25.611653 41.983828 -20.197283
Li -26.545825 43.269607 -19.215037
Li -27.123176 42.474953 -17.625727
Li -24.100130 42.474953 -17.625727
Li -24.677480 43.269607 -19.215037
Li -25.611653 43.573138 -17.625727
Li -25.611653 41.983830 -16.643479
Fe -52.734828 50.796678 -28.519017
Li -52.734828 50.796678 -30.295919
Li -52.734828 49.207369 -29.313672
Li -53.669001 52.082456 -29.313673
Li -54.246351 50.305555 -29.313671
Li -51.800656 52.082456 -29.313673
Li -51.223306 50.305555 -29.313671
Li -53.669001 49.510900 -27.724362
Li -54.246351 51.287802 -27.724363
Li -51.800656 49.510900 -27.724362
Li -52.734828 50.796680 -26.742116
Li -52.734828 52.385988 -27.724364
Li -51.223306 51.287802 -27.724363
Fe -32.014566 72.583247 -40.206968
Li -33.526089 72.092123 -41.001622
Li -32.948738 73.869024 -41.001623
Li -32.014566 72.583246 -41.983870
Li -32.014566 70.993937 -41.001622
Li -30.503043 72.092123 -41.001622
Li -31.080394 73.869024 -41.001623
Li -33.526089 73.074370 -39.412314
Li -32.948738 71.297469 -39.412313
Li -32.014566 72.583247 -38.430066
Li -31.080394 71.297469 -39.412313
Li -30.503043 73.074370 -39.412314
Li -32.014566 74.172556 -39.412314
Fe -44.820392 61.689956 -50.305595
Li -44.820392 61.689955 -52.082497
Li -45.754565 62.975733 -51.100250
Li -46.331915 61.198832 -51.100250
Li -44.820392 60.100646 -51.100249
Li -43.308870 61.198832 -51.100250
Li -43.886220 62.975733 -51.100250
Li -46.331915 62.181079 -49.510941
Li -45.754565 60.404178 -49.510940
Li -44.820392 61.689956 -48.528693
Li -43.886220 60.404178 -49.510940
Li -44.820392 63.279265 -49.510941
Li -43.308870 62.181079 -49.510941
Fe -48.777610 53.671762 -36.046094
Li -48.777610 52.082453 -36.840748
Li -49.711783 52.385985 -35.251439
Li -47.843438 52.385985 -35.251439
Li -50.289133 53.180638 -36.840749
Li -49.711783 54.957540 -36.840749
Li -47.266088 53.180638 -36.840749
Li -48.777610 53.671762 -37.822996
Li -47.843438 54.957540 -36.840749
Li -50.289133 54.162886 -35.251440
Li -47.266088 54.162886 -35.251440
Li -48.777610 53.671763 -34.269192
Li -48.777610 55.261072 -35.251440
Fe -44.820392 54.957536 -46.144727
Li -44.820392 54.957535 -47.921629
Li -45.754565 56.243313 -46.939382
Li -46.331915 54.466412 -46.939382
Li -46.331915 55.448660 -45.350073
Li -45.754565 53.671758 -45.350072
Li -44.820392 53.368226 -46.939381
Li -43.886220 56.243313 -46.939382
Li -43.308870 54.466412 -46.939382
Li -43.308870 55.448660 -45.350073
Li -43.886220 53.671758 -45.350072
Li -44.820392 54.957537 -44.367825
Li -44.820392 56.546845 -45.350073
Fe -38.417479 31.090535 -36.046084
Li -39.929002 30.599411 -36.840739
Li -39.929002 31.581659 -35.251430
Li -39.351652 29.804757 -35.251429
Li -39.351652 32.376313 -36.840740
Li -38.417479 31.090534 -37.822986
Li -38.417479 29.501225 -36.840738
Li -36.905956 30.599411 -36.840739
Li -37.483307 29.804757 -35.251429
Li -36.905956 31.581659 -35.251430
Li -38.417479 31.090535 -34.269182
Li -37.483307 32.376313 -36.840740
Li -38.417479 32.679844 -35.251430
Fe -34.460261 51.591336 -22.581251
Li -35.971784 51.100212 -23.375905
Li -35.971784 52.082459 -21.786597
Li -34.460261 51.591334 -24.358152
Li -34.460261 50.002026 -23.375905
Li -35.394434 50.305558 -21.786596
Li -33.526089 50.305558 -21.786596
Li -32.948738 52.082459 -21.786597
Li -32.948738 51.100212 -23.375905
Li -34.460261 51.591336 -20.804349
Li -35.394434 52.877114 -23.375906
Li -34.460261 53.180645 -21.786596
Li -33.526089 52.877114 -23.375906
Fe -44.820392 72.583247 -40.206968
Li -46.331915 72.092123 -41.001622
Li -44.820392 72.583246 -41.983870
Li -43.308870 72.092123 -41.001622
Li -44.820392 70.993937 -41.001622
Li -45.754565 73.869024 -41.001623
Li -43.886220 73.869024 -41.001623
Li -45.754565 71.297469 -39.412313
Li -44.820392 72.583247 -38.430066
Li -43.886220 71.297469 -39.412313
Li -46.331915 73.074370 -39.412314
Li -44.820392 74.172556 -39.412314
Li -43.308870 73.074370 -39.412314
Fe -40.863174 67.136611 -21.786603
Li -42.374697 66.645487 -22.581257
Li -40.863174 67.136611 -23.563505
Li -39.351652 66.645487 -22.581257
Li -40.863174 65.547302 -22.581257
Li -41.797347 65.850834 -20.991949
Li -39.929002 65.850834 -20.991949
Li -42.374697 67.627735 -20.991949
Li -40.863174 67.136612 -20.009702
Li -39.351652 67.627735 -20.991949
Li -41.797347 68.422389 -22.581259
Li -39.929002 68.422389 -22.581259
Li -40.863174 68.725921 -20.991950
Fe -32.014566 54.957533 -53.671803
Li -33.526089 54.466409 -54.466458
Li -32.948738 56.243310 -54.466458
Li -32.948738 53.671755 -52.877148
Li -33.526089 55.448657 -52.877149
Li -32.014566 53.368223 -54.466457
Li -32.014566 54.957532 -55.448704
Li -31.080394 56.243310 -54.466458
Li -30.503043 54.466409 -54.466458
Li -32.014566 56.546842 -52.877149
Li -32.014566 54.957533 -51.894902
Li -31.080394 53.671755 -52.877148
Li -30.503043 55.448657 -52.877149
Fe -17.697217 46.144683 -43.573167
Li -19.208740 45.653559 -44.367821
Li -17.697217 44.555374 -44.367821
Li -16.185694 45.653559 -44.367821
Li -18.631389 44.858905 -42.778511
Li -16.763044 44.858905 -42.778511
Li -18.631389 47.430461 -44.367822
Li -19.208740 46.635807 -42.778513
Li -17.697217 46.144683 -45.350069
Li -16.763044 47.430461 -44.367822
Li -17.697217 46.144684 -41.796266
Li -16.185694 46.635807 -42.778513
Li -17.697217 47.733993 -42.778514
Fe -32.014566 61.689969 -18.420390
Li -32.014566 61.689969 -20.197292
Li -33.526089 62.181093 -17.625736
Li -33.526089 61.198846 -19.215044
Li -32.948738 60.404191 -17.625735
Li -32.948738 62.975747 -19.215046
Li -32.014566 63.279279 -17.625737
Li -32.014566 60.100661 -19.215044
Li -30.503043 62.181093 -17.625736
Li -31.080394 60.404191 -17.625735
Li -31.080394 62.975747 -19.215046
Li -30.503043 61.198846 -19.215044
Li -32.014566 61.689971 -16.643489
Fe -24.100130 61.689966 -25.947466
Li -24.100130 60.100657 -26.742120
Li -24.100130 61.689966 -27.724368
Li -25.611653 61.198842 -26.742120
Li -25.034302 62.975744 -26.742121
Li -24.100130 63.279276 -25.152812
Li -23.165958 62.975744 -26.742121
Li -25.611653 62.181090 -25.152811
Li -25.034302 60.404188 -25.152811
Li -23.165958 60.404188 -25.152811
Li -24.100130 61.689967 -24.170564
Li -22.588607 61.198842 -26.742120
Li -22.588607 62.181090 -25.152811
Fe -48.777610 42.778479 -29.313668
Li -48.777610 41.189169 -30.108322
Li -49.711783 41.492701 -28.519013
Li -47.843438 41.492701 -28.519013
Li -50.289133 42.287355 -30.108323
Li -49.711783 44.064257 -30.108323
Li -48.777610 42.778478 -31.090570
Li -47.266088 42.287355 -30.108323
Li -47.843438 44.064257 -30.108323
Li -50.289133 43.269602 -28.519014
Li -48.777610 42.778479 -27.536766
Li -47.266088 43.269602 -28.519014
Li -48.777610 44.367788 -28.519014
Fe -38.417479 41.983829 -18.420382
Li -39.929002 41.492705 -19.215035
Li -39.351652 43.269607 -19.215037
Li -39.351652 40.698051 -17.625726
Li -39.929002 42.474953 -17.625727
Li -38.417479 40.394519 -19.215035
Li -37.483307 40.698051 -17.625726
Li -38.417479 41.983828 -20.197283
Li -37.483307 43.269607 -19.215037
Li -36.905956 41.492705 -19.215035
Li -36.905956 42.474953 -17.625727
Li -38.417479 43.573138 -17.625727
Li -38.417479 41.983830 -16.643479
Fe -48.777610 56.243313 -46.939382
Li -48.777610 56.243313 -48.716284
Li -50.289133 56.734437 -46.144728
Li -50.289133 55.752189 -47.734037
Li -49.711783 54.957536 -46.144727
Li -48.777610 54.654004 -47.734036
Li -48.777610 56.243315 -45.162480
Li -47.266088 56.734437 -46.144728
Li -47.266088 55.752189 -47.734037
Li -47.843438 54.957536 -46.144727
Li -49.711783 57.529091 -47.734037
Li -48.777610 57.832623 -46.144728
Li -47.843438 57.529091 -47.734037
Fe -42.374697 40.698045 -32.679878
Li -43.886220 40.206921 -33.474533
Li -42.374697 39.108735 -33.474532
Li -42.374697 40.698043 -34.456779
Li -40.863174 40.206921 -33.474533
Li -43.308870 41.983823 -33.474533
Li -41.440525 41.983823 -33.474533
Li -43.886220 41.189168 -31.885224
Li -43.308870 39.412267 -31.885223
Li -41.440525 39.412267 -31.885223
Li -42.374697 40.698045 -30.902976
Li -40.863174 41.189168 -31.885224
Li -42.374697 42.287354 -31.885224
Fe -32.014566 57.529095 -40.206961
Li -32.014566 55.939785 -41.001616
Li -33.526089 57.037971 -41.001615
Li -32.014566 57.529094 -41.983863
Li -32.948738 58.814872 -41.001617
Li -32.948738 56.243317 -39.412306
Li -33.526089 58.020218 -39.412307
Li -32.014566 57.529096 -38.430060
Li -32.014566 59.118405 -39.412308
Li -30.503043 57.037971 -41.001615
Li -31.080394 58.814872 -41.001617
Li -31.080394 56.243317 -39.412306
Li -30.503043 58.020218 -39.412307
Fe -42.374697 51.591325 -46.939380
Li -42.374697 51.591324 -48.716282
Li -43.886220 51.100201 -47.734034
Li -43.886220 52.082448 -46.144726
Li -43.308870 52.877103 -47.734035
Li -43.308870 50.305548 -46.144725
Li -42.374697 51.591325 -45.162479
Li -42.374697 50.002016 -47.734034
Li -41.440525 52.877103 -47.734035
Li -41.440525 50.305548 -46.144725
Li -40.863174 51.100201 -47.734034
Li -40.863174 52.082448 -46.144726
Li -42.374697 53.180634 -46.144727
Fe -38.417479 35.251406 -21.786589
Li -39.929002 34.760283 -22.581243
Li -39.351652 36.537184 -22.581244
Li -39.351652 33.965628 -20.991934
Li -39.929002 35.742530 -20.991935
Li -38.417479 33.662096 -22.581243
Li -36.905956 34.760283 -22.581243
Li -38.417479 35.251405 -23.563491
Li -37.483307 36.537184 -22.581244
Li -37.483307 33.965628 -20.991934
Li -36.905956 35.742530 -20.991935
Li -38.417479 35.251407 -20.009687
Li -38.417479 36.840716 -20.991935
Fe -34.460261 69.217045 -18.420394
Li -35.394434 67.931268 -17.625739
Li -34.460261 67.627736 -19.215047
Li -33.526089 67.931268 -17.625739
Li -35.971784 68.725921 -19.215047
Li -35.971784 69.708169 -17.625739
Li -34.460261 69.217045 -20.197295
Li -33.526089 70.502823 -19.215049
Li -32.948738 69.708169 -17.625739
Li -35.394434 70.502823 -19.215049
Li -32.948738 68.725921 -19.215047
Li -34.460261 70.806355 -17.625740
Li -34.460261 69.217046 -16.643492
Fe -17.697217 52.877109 -32.679883
Li -19.208740 52.385985 -33.474537
Li -17.697217 51.287800 -33.474538
Li -17.697217 52.877109 -34.456785
Li -16.185694 52.385985 -33.474537
Li -18.631389 54.162887 -33.474539
Li -16.763044 54.162887 -33.474539
Li -18.631389 51.591331 -31.885228
Li -16.763044 51.591331 -31.885228
Li -19.208740 53.368233 -31.885229
Li -16.185694 53.368233 -31.885229
Li -17.697217 52.877110 -30.902982
Li -17.697217 54.466419 -31.885230
Fe -28.057348 53.671762 -36.046094
Li -28.057348 52.082453 -36.840748
Li -28.991520 52.385985 -35.251439
Li -27.123176 52.385985 -35.251439
Li -28.057348 53.671762 -37.822996
Li -28.991520 54.957540 -36.840749
Li -29.568871 53.180638 -36.840749
Li -29.568871 54.162886 -35.251440
Li -28.057348 55.261072 -35.251440
Li -28.057348 53.671763 -34.269192
Li -27.123176 54.957540 -36.840749
Li -26.545825 53.180638 -36.840749
Li -26.545825 54.162886 -35.251440
Fe -24.100130 50.796672 -43.573169
Li -24.100130 49.207363 -44.367823
Li -25.611653 50.305548 -44.367824
Li -23.165958 52.082450 -44.367824
Li -24.100130 50.796671 -45.350071
Li -25.034302 52.082450 -44.367824
Li -25.611653 51.287795 -42.778515
Li -24.100130 52.385982 -42.778515
Li -25.034302 49.510894 -42.778514
Li -23.165958 49.510894 -42.778514
Li -24.100130 50.796673 -41.796267
Li -22.588607 50.305548 -44.367824
Li -22.588607 51.287795 -42.778515
Fe -40.863174 56.243328 -15.054177
Li -42.374697 55.752204 -15.848831
Li -40.863174 56.243327 -16.831078
Li -40.863174 54.654018 -15.848830
Li -39.351652 55.752204 -15.848831
Li -41.797347 54.957550 -14.259522
Li -39.929002 54.957550 -14.259522
Li -41.797347 57.529106 -15.848833
Li -39.929002 57.529106 -15.848833
Li -42.374697 56.734452 -14.259522
Li -40.863174 56.243328 -13.277275
Li -39.351652 56.734452 -14.259522
Li -40.863174 57.832637 -14.259523
Fe -24.100130 61.689969 -18.420390
Li -25.611653 61.198846 -19.215044
Li -25.034302 60.404191 -17.625735
Li -23.165958 60.404191 -17.625735
Li -24.100130 60.100661 -19.215044
Li -24.100130 61.689969 -20.197292
Li -25.611653 62.181093 -17.625736
Li -25.034302 62.975747 -19.215046
Li -23.165958 62.975747 -19.215046
Li -24.100130 63.279279 -17.625737
Li -22.588607 61.198846 -19.215044
Li -22.588607 62.181093 -17.625736
Li -24.100130 61.689971 -16.643489
Fe -44.820392 48.225117 -40.206957
Li -46.331915 47.733993 -41.001612
Li -44.820392 46.635808 -41.001611
Li -43.308870 47.733993 -41.001612
Li -44.820392 48.225117 -41.983859
Li -45.754565 49.510895 -41.001612
Li -43.886220 49.510895 -41.001612
Li -45.754565 46.939339 -39.412302
Li -43.886220 46.939339 -39.412302
Li -46.331915 48.716241 -39.412303
Li -43.308870 48.716241 -39.412303
Li -44.820392 48.225118 -38.430056
Li -44.820392 49.814427 -39.412304
Fe -44.820392 33.170966 -40.206950
Li -44.820392 31.581656 -41.001604
Li -45.754565 34.456743 -41.001605
Li -46.331915 32.679842 -41.001605
Li -44.820392 33.170964 -41.983852
Li -43.886220 34.456743 -41.001605
Li -43.308870 32.679842 -41.001605
Li -45.754565 31.885188 -39.412295
Li -43.886220 31.885188 -39.412295
Li -44.820392 33.170966 -38.430049
Li -43.308870 33.662089 -39.412296
Li -46.331915 33.662089 -39.412296
Li -44.820392 34.760274 -39.412297
Fe -34.460261 54.162882 -42.778516
Li -35.394434 52.877105 -41.983861
Li -34.460261 52.573573 -43.573170
Li -33.526089 52.877105 -41.983861
Li -34.460261 54.162882 -44.555418
Li -35.971784 53.671759 -43.573170
Li -35.394434 55.448660 -43.573171
Li -35.971784 54.654006 -41.983862
Li -33.526089 55.448660 -43.573171
Li -32.948738 53.671759 -43.573170
Li -34.460261 55.752193 -41.983862
Li -34.460261 54.162884 -41.001614
Li -32.948738 54.654006 -41.983862
Fe -35.971784 60.404185 -32.679887
Li -37.483307 59.913061 -33.474540
Li -35.971784 58.814876 -33.474541
Li -34.460261 59.913061 -33.474540
Li -35.971784 60.404184 -34.456789
Li -36.905956 61.689963 -33.474542
Li -35.037612 61.689963 -33.474542
Li -36.905956 59.118408 -31.885232
Li -35.037612 59.118408 -31.885232
Li -37.483307 60.895308 -31.885233
Li -35.971784 60.404186 -30.902985
Li -35.971784 61.993495 -31.885233
Li -34.460261 60.895308 -31.885233
Fe -38.417479 63.770403 -15.054181
Li -39.929002 63.279280 -15.848834
Li -39.351652 62.484625 -14.259525
Li -39.351652 65.056181 -15.848836
Li -39.929002 64.261528 -14.259526
Li -36.905956 63.279280 -15.848834
Li -38.417479 62.181095 -15.848834
Li -37.483307 62.484625 -14.259525
Li -38.417479 63.770403 -16.831082
Li -37.483307 65.056181 -15.848836
Li -38.417479 63.770405 -13.277279
Li -36.905956 64.261528 -14.259526
Li -38.417479 65.359713 -14.259527
Fe -44.820392 37.331837 -25.947455
Li -46.331915 36.840713 -26.742110
Li -44.820392 37.331836 -27.724357
Li -44.820392 35.742527 -26.742109
Li -43.308870 36.840713 -26.742110
Li -45.754565 36.046059 -25.152800
Li -43.886220 36.046059 -25.152800
Li -44.820392 37.331838 -24.170553
Li -45.754565 38.617615 -26.742110
Li -43.886220 38.617615 -26.742110
Li -46.331915 37.822961 -25.152801
Li -44.820392 38.921146 -25.152801
Li -43.308870 37.822961 -25.152801
Fe -44.820392 33.170969 -32.679875
Li -44.820392 31.581659 -33.474528
Li -44.820392 33.170968 -34.456776
Li -45.754565 34.456747 -33.474530
Li -46.331915 32.679845 -33.474529
Li -43.886220 34.456747 -33.474530
Li -43.308870 32.679845 -33.474529
Li -45.754565 31.885191 -31.885219
Li -43.886220 31.885191 -31.885219
Li -46.331915 33.662093 -31.885221
Li -44.820392 34.760278 -31.885220
Li -44.820392 33.170969 -30.902972
Li -43.308870 33.662093 -31.885221
Fe -44.820392 39.903392 -29.313667
Li -44.820392 38.314082 -30.108321
Li -45.754565 41.189169 -30.108322
Li -46.331915 39.412268 -30.108321
Li -44.820392 39.903390 -31.090569
Li -43.886220 41.189169 -30.108322
Li -43.308870 39.412268 -30.108321
Li -45.754565 38.617614 -28.519012
Li -43.886220 38.617614 -28.519012
Li -46.331915 40.394515 -28.519013
Li -44.820392 41.492701 -28.519013
Li -44.820392 39.903392 -27.536765
Li -43.308870 40.394515 -28.519013
Fe -38.417479 63.770393 -39.412310
Li -39.929002 63.279270 -40.206964
Li -39.351652 65.056170 -40.206965
Li -39.351652 62.484615 -38.617655
Li -39.929002 64.261517 -38.617656
Li -38.417479 62.181083 -40.206964
Li -38.417479 63.770392 -41.189211
Li -36.905956 63.279270 -40.206964
Li -37.483307 65.056170 -40.206965
Li -37.483307 62.484615 -38.617655
Li -38.417479 63.770394 -37.635408
Li -38.417479 65.359702 -38.617656
Li -36.905956 64.261517 -38.617656
Fe -42.374697 47.430456 -53.671799
Li -43.886220 46.939332 -54.466454
Li -43.308870 48.716234 -54.466454
Li -43.886220 47.921580 -52.877145
Li -42.374697 47.430456 -55.448701
Li -42.374697 49.019766 -52.877146
Li -42.374697 45.841147 -54.466453
Li -41.440525 48.716234 -54.466454
Li -40.863174 47.921580 -52.877145
Li -40.863174 46.939332 -54.466454
Li -43.308870 46.144679 -52.877144
Li -41.440525 46.144679 -52.877144
Li -42.374697 47.430457 -51.894898
Fe -28.057348 56.243328 -15.054177
Li -29.568871 55.752204 -15.848831
Li -28.991520 54.957550 -14.259522
Li -28.057348 54.654018 -15.848830
Li -26.545825 55.752204 -15.848831
Li -27.123176 54.957550 -14.259522
Li -28.991520 57.529106 -15.848833
Li -29.568871 56.734452 -14.259522
Li -28.057348 56.243327 -16.831078
Li -27.123176 57.529106 -15.848833
Li -28.057348 56.243328 -13.277275
Li -28.057348 57.832637 -14.259523
Li -26.545825 56.734452 -14.259522
Fe -42.374697 54.162882 -42.778516
Li -43.308870 52.877105 -41.983861
Li -42.374697 52.573573 -43.573170
Li -41.440525 52.877105 -41.983861
Li -42.374697 54.162882 -44.555418
Li -43.886220 53.671759 -43.573170
Li -43.886220 54.654006 -41.983862
Li -43.308870 55.448660 -43.573171
Li -42.374697 55.752193 -41.983862
Li -41.440525 55.448660 -43.573171
Li -40.863174 53.671759 -43.573170
Li -40.863174 54.654006 -41.983862
Li -42.374697 54.162884 -41.001614
Fe -35.971784 49.510891 -50.305589
Li -35.971784 47.921581 -51.100244
Li -37.483307 49.019766 -51.100244
Li -35.971784 49.510890 -52.082491
Li -36.905956 48.225114 -49.510935
Li -34.460261 49.019766 -51.100244
Li -35.037612 48.225114 -49.510935
Li -36.905956 50.796669 -51.100245
Li -35.971784 49.510891 -48.528689
Li -37.483307 50.002014 -49.510935
Li -35.971784 51.100200 -49.510936
Li -35.037612 50.796669 -51.100245
Li -34.460261 50.002014 -49.510935
Fe -35.971784 56.243328 -15.054177
Li -35.971784 54.654018 -15.848830
Li -35.971784 56.243327 -16.831078
Li -37.483307 55.752204 -15.848831
Li -36.905956 54.957550 -14.259522
Li -34.460261 55.752204 -15.848831
Li -35.037612 54.957550 -14.259522
Li -36.905956 57.529106 -15.848833
Li -35.971784 56.243328 -13.277275
Li -37.483307 56.734452 -14.259522
Li -35.971784 57.832637 -14.259523
Li -35.037612 57.529106 -15.848833
Li -34.460261 56.734452 -14.259522
Fe -52.734828 48.225120 -32.679881
Li -52.734828 46.635811 -33.474535
Li -54.246351 47.733996 -33.474536
Li -52.734828 48.225120 -34.456783
Li -51.223306 47.733996 -33.474536
Li -53.669001 49.510898 -33.474536
Li -51.800656 49.510898 -33.474536
Li -54.246351 48.716244 -31.885227
Li -53.669001 46.939343 -31.885226
Li -51.800656 46.939343 -31.885226
Li -51.223306 48.716244 -31.885227
Li -52.734828 48.225122 -30.902979
Li -52.734828 49.814431 -31.885227
Fe -42.374697 47.430471 -21.786595
Li -43.886220 46.939347 -22.581248
Li -43.308870 48.716249 -22.581250
Li -42.374697 47.430469 -23.563496
Li -42.374697 45.841161 -22.581248
Li -41.440525 48.716249 -22.581250
Li -40.863174 46.939347 -22.581248
Li -43.886220 47.921595 -20.991940
Li -43.308870 46.144693 -20.991939
Li -42.374697 49.019780 -20.991940
Li -41.440525 46.144693 -20.991939
Li -40.863174 47.921595 -20.991940
Li -42.374697 47.430471 -20.009692
Fe -21.654435 54.162894 -18.420387
Li -21.654435 52.573584 -19.215040
Li -23.165958 54.654018 -17.625732
Li -23.165958 53.671770 -19.215041
Li -21.654435 54.162893 -20.197288
Li -21.654435 55.752203 -17.625733
Li -22.588607 52.877116 -17.625732
Li -22.588607 55.448671 -19.215042
Li -20.720262 52.877116 -17.625732
Li -20.720262 55.448671 -19.215042
Li -20.142912 54.654018 -17.625732
Li -20.142912 53.671770 -19.215041
Li -21.654435 54.162894 -16.643485
Fe -29.568871 47.430471 -21.786595
Li -31.080394 46.939347 -22.581248
Li -30.503043 48.716249 -22.581250
Li -29.568871 47.430469 -23.563496
Li -28.057348 46.939347 -22.581248
Li -29.568871 45.841161 -22.581248
Li -28.634698 48.716249 -22.581250
Li -30.503043 46.144693 -20.991939
Li -28.634698 46.144693 -20.991939
Li -31.080394 47.921595 -20.991940
Li -29.568871 47.430471 -20.009692
Li -29.568871 49.019780 -20.991940
Li -28.057348 47.921595 -20.991940
Fe -34.460261 58.323762 -11.687968
Li -34.460261 58.323761 -13.464868
Li -35.971784 57.832638 -12.482621
Li -35.971784 58.814886 -10.893313
Li -33.526089 57.037984 -10.893312
Li -34.460261 56.734452 -12.482620
Li -35.394434 57.037984 -10.893312
Li -32.948738 57.832638 -12.482621
Li -32.948738 58.814886 -10.893313
Li -33.526089 59.609540 -12.482623
Li -35.394434 59.609540 -12.482623
Li -34.460261 58.323762 -9.911065
Li -34.460261 59.913071 -10.893313
Fe -34.460261 43.269596 -43.573166
Li -35.971784 42.778472 -44.367820
Li -35.394434 44.555374 -44.367821
Li -34.460261 41.680286 -44.367819
Li -32.948738 42.778472 -44.367820
Li -34.460261 43.269595 -45.350067
Li -33.526089 44.555374 -44.367821
Li -35.394434 41.983818 -42.778510
Li -35.971784 43.760720 -42.778512
Li -34.460261 43.269596 -41.796263
Li -33.526089 41.983818 -42.778510
Li -32.948738 43.760720 -42.778512
Li -34.460261 44.858905 -42.778511
Fe -38.417479 74.663684 -29.313683
Li -39.929002 74.172561 -30.108337
Li -39.351652 75.949461 -30.108338
Li -39.929002 75.154808 -28.519028
Li -39.351652 73.377906 -28.519028
Li -38.417479 73.074374 -30.108337
Li -37.483307 73.377906 -28.519028
Li -38.417479 74.663683 -31.090584
Li -36.905956 74.172561 -30.108337
Li -37.483307 75.949461 -30.108338
Li -38.417479 76.252993 -28.519029
Li -36.905956 75.154808 -28.519028
Li -38.417479 74.663685 -27.536781
Fe -28.057348 67.136604 -36.840755
Li -28.057348 65.547295 -37.635409
Li -29.568871 67.627728 -36.046101
Li -28.991520 65.850827 -36.046100
Li -29.568871 66.645481 -37.635409
Li -28.057348 67.136604 -38.617657
Li -28.057348 67.136606 -35.063853
Li -26.545825 67.627728 -36.046101
Li -26.545825 66.645481 -37.635409
Li -27.123176 65.850827 -36.046100
Li -28.991520 68.422382 -37.635410
Li -27.123176 68.422382 -37.635410
Li -28.057348 68.725914 -36.046101
Fe -28.057348 60.404182 -40.206962
Li -28.057348 60.404181 -41.983864
Li -29.568871 59.913057 -41.001617
Li -28.057348 58.814872 -41.001617
Li -26.545825 59.913057 -41.001617
Li -28.991520 61.689960 -41.001618
Li -27.123176 61.689960 -41.001618
Li -28.991520 59.118405 -39.412308
Li -27.123176 59.118405 -39.412308
Li -29.568871 60.895305 -39.412308
Li -28.057348 60.404183 -38.430061
Li -28.057348 61.993492 -39.412309
Li -26.545825 60.895305 -39.412308
Fe -44.820392 65.850831 -28.519024
Li -46.331915 65.359707 -29.313678
Li -44.820392 64.261521 -29.313678
Li -43.308870 65.359707 -29.313678
Li -44.820392 65.850829 -30.295926
Li -45.754565 67.136608 -29.313679
Li -43.886220 67.136608 -29.313679
Li -45.754565 64.565053 -27.724369
Li -43.886220 64.565053 -27.724369
Li -44.820392 65.850831 -26.742122
Li -46.331915 66.341955 -27.724370
Li -44.820392 67.440140 -27.724370
Li -43.308870 66.341955 -27.724370
Fe -40.863174 60.404185 -32.679887
Li -42.374697 59.913061 -33.474540
Li -39.351652 59.913061 -33.474540
Li -40.863174 58.814876 -33.474541
Li -41.797347 61.689963 -33.474542
Li -40.863174 60.404184 -34.456789
Li -39.929002 61.689963 -33.474542
Li -41.797347 59.118408 -31.885232
Li -39.929002 59.118408 -31.885232
Li -42.374697 60.895308 -31.885233
Li -40.863174 60.404186 -30.902985
Li -39.351652 60.895308 -31.885233
Li -40.863174 61.993495 -31.885233
Fe -51.223306 46.144683 -43.573167
Li -51.223306 44.555374 -44.367821
Li -52.157478 44.858905 -42.778511
Li -50.289133 44.858905 -42.778511
Li -51.223306 46.144683 -45.350069
Li -52.157478 47.430461 -44.367822
Li -51.223306 46.144684 -41.796266
Li -52.734828 45.653559 -44.367821
Li -52.734828 46.635807 -42.778513
Li -51.223306 47.733993 -42.778514
Li -50.289133 47.430461 -44.367822
Li -49.711783 45.653559 -44.367821
Li -49.711783 46.635807 -42.778513
Fe -25.611653 63.770390 -46.939386
Li -25.611653 63.770389 -48.716287
Li -27.123176 63.279266 -47.734040
Li -25.611653 62.181080 -47.734039
Li -26.545825 62.484612 -46.144730
Li -25.611653 63.770390 -45.162483
Li -24.100130 63.279266 -47.734040
Li -24.677480 62.484612 -46.144730
Li -26.545825 65.056167 -47.734040
Li -27.123176 64.261514 -46.144732
Li -25.611653 65.359699 -46.144731
Li -24.677480 65.056167 -47.734040
Li -24.100130 64.261514 -46.144732
Fe -17.697217 59.609535 -21.786600
Li -19.208740 59.118411 -22.581254
Li -18.631389 58.323757 -20.991945
Li -17.697217 58.020226 -22.581253
Li -16.185694 59.118411 -22.581254
Li -17.697217 59.609535 -23.563501
Li -16.763044 58.323757 -20.991945
Li -17.697217 59.609536 -20.009699
Li -19.208740 60.100659 -20.991945
Li -18.631389 60.895313 -22.581255
Li -16.763044 60.895313 -22.581255
Li -17.697217 61.198845 -20.991946
Li -16.185694 60.100659 -20.991945
Fe -48.777610 49.510894 -42.778514
Li -48.777610 49.510893 -44.555416
Li -48.777610 47.921585 -43.573168
Li -50.289133 49.019770 -43.573168
Li -47.266088 49.019770 -43.573168
Li -49.711783 48.225117 -41.983859
Li -47.843438 48.225117 -41.983859
Li -50.289133 50.002017 -41.983860
Li -49.711783 50.796672 -43.573169
Li -48.777610 51.100204 -41.983860
Li -48.777610 49.510895 -41.001612
Li -47.266088 50.002017 -41.983860
Li -47.843438 50.796672 -43.573169
Fe -34.460261 69.217042 -25.947469
Li -35.394434 67.931265 -25.152815
Li -33.526089 67.931265 -25.152815
Li -34.460261 67.627733 -26.742124
Li -35.971784 68.725918 -26.742123
Li -34.460261 69.217041 -27.724371
Li -32.948738 68.725918 -26.742123
Li -35.394434 70.502820 -26.742125
Li -33.526089 70.502820 -26.742125
Li -35.971784 69.708166 -25.152814
Li -32.948738 69.708166 -25.152814
Li -34.460261 69.217043 -24.170568
Li -34.460261 70.806352 -25.152816
Fe -21.654435 47.430464 -36.840746
Li -23.165958 46.939340 -37.635401
Li -23.165958 47.921588 -36.046092
Li -21.654435 45.841154 -37.635400
Li -21.654435 47.430463 -38.617648
Li -22.588607 48.716242 -37.635401
Li -20.142912 46.939340 -37.635401
Li -20.720262 48.716242 -37.635401
Li -22.588607 46.144686 -36.046091
Li -21.654435 47.430465 -35.063844
Li -21.654435 49.019773 -36.046092
Li -20.720262 46.144686 -36.046091
Li -20.142912 47.921588 -36.046092
Fe -55.180524 40.698048 -25.152802
Li -55.180524 40.698047 -26.929704
Li -56.114696 39.412270 -24.358147
Li -56.692046 40.206924 -25.947456
Li -55.180524 39.108739 -25.947456
Li -55.180524 40.698049 -23.375900
Li -56.692046 41.189172 -24.358148
Li -56.114696 41.983826 -25.947457
Li -55.180524 42.287357 -24.358148
Li -54.246351 41.983826 -25.947457
Li -53.669001 40.206924 -25.947456
Li -54.246351 39.412270 -24.358147
Li -53.669001 41.189172 -24.358148
Fe -42.374697 62.484622 -21.786601
Li -43.886220 61.993499 -22.581255
Li -42.374697 62.484622 -23.563503
Li -42.374697 60.895313 -22.581255
Li -40.863174 61.993499 -22.581255
Li -43.886220 62.975746 -20.991946
Li -43.308870 61.198845 -20.991946
Li -42.374697 62.484624 -20.009699
Li -41.440525 61.198845 -20.991946
Li -40.863174 62.975746 -20.991946
Li -43.308870 63.770400 -22.581256
Li -41.440525 63.770400 -22.581256
Li -42.374697 64.073932 -20.991947
Fe -42.374697 54.162890 -25.947463
Li -42.374697 52.573580 -26.742117
Li -43.886220 53.671767 -26.742117
Li -43.308870 55.448668 -26.742118
Li -42.374697 54.162889 -27.724364
Li -40.863174 53.671767 -26.742117
Li -42.374697 55.752199 -25.152809
Li -41.440525 55.448668 -26.742118
Li -43.308870 52.877112 -25.152808
Li -43.886220 54.654014 -25.152808
Li -42.374697 54.162891 -24.170561
Li -41.440525 52.877112 -25.152808
Li -40.863174 54.654014 -25.152808
Fe -42.374697 58.323751 -36.046096
Li -43.308870 59.609529 -36.840752
Li -43.886220 57.832627 -36.840750
Li -43.308870 57.037974 -35.251442
Li -43.886220 58.814874 -35.251442
Li -42.374697 56.734442 -36.840751
Li -42.374697 58.323750 -37.822998
Li -41.440525 59.609529 -36.840752
Li -40.863174 57.832627 -36.840750
Li -41.440525 57.037974 -35.251442
Li -42.374697 58.323752 -34.269195
Li -42.374697 59.913061 -35.251443
Li -40.863174 58.814874 -35.251442
Fe -44.820392 50.796672 -43.573169
Li -44.820392 49.207363 -44.367823
Li -45.754565 52.082450 -44.367824
Li -46.331915 50.305548 -44.367824
Li -44.820392 50.796671 -45.350071
Li -43.886220 52.082450 -44.367824
Li -43.308870 50.305548 -44.367824
Li -45.754565 49.510894 -42.778514
Li -44.820392 50.796673 -41.796267
Li -43.886220 49.510894 -42.778514
Li -46.331915 51.287795 -42.778515
Li -44.820392 52.385982 -42.778515
Li -43.308870 51.287795 -42.778515
Fe -48.777610 56.243328 -15.054177
Li -50.289133 55.752204 -15.848831
Li -50.289133 56.734452 -14.259522
Li -48.777610 54.654018 -15.848830
Li -47.266088 55.752204 -15.848831
Li -47.843438 54.957550 -14.259522
Li -49.711783 54.957550 -14.259522
Li -49.711783 57.529106 -15.848833
Li -48.777610 56.243327 -16.831078
Li -47.843438 57.529106 -15.848833
Li -48.777610 56.243328 -13.277275
Li -48.777610 57.832637 -14.259523
Li -47.266088 56.734452 -14.259522
Fe -34.460261 47.430456 -53.671799
Li -34.460261 45.841147 -54.466453
Li -35.971784 46.939332 -54.466454
Li -32.948738 46.939332 -54.466454
Li -34.460261 47.430456 -55.448701
Li -35.394434 48.716234 -54.466454
Li -33.526089 48.716234 -54.466454
Li -34.460261 49.019766 -52.877146
Li -35.971784 47.921580 -52.877145
Li -35.394434 46.144679 -52.877144
Li -33.526089 46.144679 -52.877144
Li -34.460261 47.430457 -51.894898
Li -32.948738 47.921580 -52.877145
Fe -51.223306 70.502816 -36.046102
Li -51.223306 68.913506 -36.840756
Li -52.734828 70.011692 -36.840756
Li -51.223306 70.502815 -37.823004
Li -52.157478 71.788593 -36.840757
Li -52.157478 69.217038 -35.251447
Li -51.223306 72.092125 -35.251448
Li -52.734828 70.993940 -35.251448
Li -51.223306 70.502816 -34.269200
Li -49.711783 70.011692 -36.840756
Li -50.289133 71.788593 -36.840757
Li -50.289133 69.217038 -35.251447
Li -49.711783 70.993940 -35.251448
Fe -40.863174 38.617611 -36.046088
Li -40.863174 37.028301 -36.840741
Li -41.797347 37.331833 -35.251432
Li -39.929002 37.331833 -35.251432
Li -40.863174 38.617609 -37.822989
Li -42.374697 39.108734 -35.251434
Li -42.374697 38.126486 -36.840742
Li -40.863174 38.617611 -34.269185
Li -39.351652 39.108734 -35.251434
Li -39.351652 38.126486 -36.840742
Li -41.797347 39.903389 -36.840743
Li -40.863174 40.206920 -35.251433
Li -39.929002 39.903389 -36.840743
Fe -44.820392 44.064263 -15.054172
Li -45.754565 45.350041 -15.848827
Li -46.331915 43.573140 -15.848826
Li -44.820392 44.064262 -16.831073
Li -44.820392 42.474953 -15.848826
Li -43.886220 45.350041 -15.848827
Li -43.308870 43.573140 -15.848826
Li -45.754565 42.778485 -14.259517
Li -46.331915 44.555387 -14.259517
Li -44.820392 45.653572 -14.259518
Li -43.886220 42.778485 -14.259517
Li -43.308870 44.555387 -14.259517
Li -44.820392 44.064264 -13.277270
Fe -48.777610 42.778482 -21.786592
Li -50.289133 42.287358 -22.581246
Li -48.777610 41.189173 -22.581247
Li -48.777610 42.778481 -23.563494
Li -47.266088 42.287358 -22.581246
Li -49.711783 44.064260 -22.581248
Li -47.843438 44.064260 -22.581248
Li -49.711783 41.492704 -20.991937
Li -47.843438 41.492704 -20.991937
Li -50.289133 43.269606 -20.991938
Li -47.266088 43.269606 -20.991938
Li -48.777610 44.367791 -20.991938
Li -48.777610 42.778483 -20.009691
Fe -32.014566 54.957536 -46.144727
Li -32.014566 54.957535 -47.921629
Li -32.948738 53.671758 -45.350072
Li -33.526089 54.466412 -46.939382
Li -32.014566 53.368226 -46.939381
Li -33.526089 55.448660 -45.350073
Li -32.948738 56.243313 -46.939382
Li -32.014566 56.546845 -45.350073
Li -32.014566 54.957537 -44.367825
Li -31.080394 53.671758 -45.350072
Li -30.503043 54.466412 -46.939382
Li -31.080394 56.243313 -46.939382
Li -30.503043 55.448660 -45.350073
Fe -38.417479 52.877106 -40.206959
Li -39.929002 52.385982 -41.001614
Li -39.351652 51.591328 -39.412304
Li -38.417479 52.877105 -41.983861
Li -36.905956 52.385982 -41.001614
Li -38.417479 51.287797 -41.001613
Li -37.483307 51.591328 -39.412304
Li -38.417479 52.877107 -38.430057
Li -39.351652 54.162884 -41.001614
Li -39.929002 53.368230 -39.412305
Li -37.483307 54.162884 -41.001614
Li -36.905956 53.368230 -39.412305
Li -38.417479 54.466416 -39.412305
Fe -35.971784 49.510902 -25.947461
Li -35.971784 47.921592 -26.742114
Li -35.971784 49.510900 -27.724362
Li -37.483307 49.019778 -26.742114
Li -37.483307 50.002025 -25.152807
Li -36.905956 50.796680 -26.742116
Li -34.460261 50.002025 -25.152807
Li -34.460261 49.019778 -26.742114
Li -35.037612 50.796680 -26.742116
Li -36.905956 48.225124 -25.152805
Li -35.037612 48.225124 -25.152805
Li -35.971784 49.510902 -24.170558
Li -35.971784 51.100211 -25.152806
Fe -30.503043 52.877106 -40.206959
Li -32.014566 52.385982 -41.001614
Li -31.437216 51.591328 -39.412304
Li -30.503043 52.877105 -41.983861
Li -30.503043 51.287797 -41.001613
Li -28.991520 52.385982 -41.001614
Li -29.568871 51.591328 -39.412304
Li -30.503043 52.877107 -38.430057
Li -31.437216 54.162884 -41.001614
Li -32.014566 53.368230 -39.412305
Li -29.568871 54.162884 -41.001614
Li -30.503043 54.466416 -39.412305
Li -28.991520 53.368230 -39.412305
Fe -52.734828 54.957543 -29.313674
Li -54.246351 54.466420 -30.108327
Li -52.734828 53.368234 -30.108328
Li -51.223306 54.466420 -30.108327
Li -52.734828 54.957543 -31.090576
Li -53.669001 56.243321 -30.108329
Li -51.800656 56.243321 -30.108329
Li -53.669001 53.671765 -28.519018
Li -54.246351 55.448667 -28.519020
Li -51.800656 53.671765 -28.519018
Li -51.223306 55.448667 -28.519020
Li -52.734828 54.957545 -27.536772
Li -52.734828 56.546853 -28.519020
Fe -42.374697 65.056170 -40.206965
Li -42.374697 63.466861 -41.001619
Li -43.886220 64.565047 -41.001618
Li -43.308870 66.341948 -41.001620
Li -42.374697 65.056170 -41.983867
Li -40.863174 64.565047 -41.001618
Li -41.440525 66.341948 -41.001620
Li -43.308870 63.770393 -39.412310
Li -41.440525 63.770393 -39.412310
Li -43.886220 65.547294 -39.412311
Li -42.374697 65.056172 -38.430063
Li -42.374697 66.645480 -39.412311
Li -40.863174 65.547294 -39.412311
Fe -48.777610 52.082456 -29.313673
Li -48.777610 52.082455 -31.090574
Li -50.289133 51.591333 -30.108327
Li -47.266088 51.591333 -30.108327
Li -48.777610 50.493146 -30.108326
Li -49.711783 50.796678 -28.519017
Li -50.289133 52.573580 -28.519018
Li -47.843438 50.796678 -28.519017
Li -48.777610 52.082457 -27.536770
Li -47.266088 52.573580 -28.519018
Li -49.711783 53.368234 -30.108328
Li -47.843438 53.368234 -30.108328
Li -48.777610 53.671765 -28.519018
Fe -51.223306 63.770390 -46.939386
Li -51.223306 62.181080 -47.734039
Li -51.223306 63.770389 -48.716287
Li -52.734828 63.279266 -47.734040
Li -49.711783 63.279266 -47.734040
Li -52.157478 65.056167 -47.734040
Li -50.289133 65.056167 -47.734040
Li -52.157478 62.484612 -46.144730
Li -52.734828 64.261514 -46.144732
Li -51.223306 65.359699 -46.144731
Li -51.223306 63.770390 -45.162483
Li -50.289133 62.484612 -46.144730
Li -49.711783 64.261514 -46.144732
Fe -42.374697 47.430460 -46.144723
Li -42.374697 47.430459 -47.921625
Li -43.886220 46.939336 -46.939378
Li -43.308870 46.144683 -45.350069
Li -43.886220 47.921583 -45.350069
Li -43.308870 48.716238 -46.939379
Li -40.863174 46.939336 -46.939378
Li -42.374697 45.841151 -46.939378
Li -41.440525 46.144683 -45.350069
Li -41.440525 48.716238 -46.939379
Li -40.863174 47.921583 -45.350069
Li -42.374697 49.019770 -45.350070
Li -42.374697 47.430461 -44.367822
Fe -48.777610 49.510905 -18.420385
Li -49.711783 48.225127 -17.625730
Li -48.777610 47.921595 -19.215039
Li -47.843438 48.225127 -17.625730
Li -48.777610 49.510904 -20.197286
Li -50.289133 49.019781 -19.215039
Li -47.266088 49.019781 -19.215039
Li -50.289133 50.002029 -17.625730
Li -47.266088 50.002029 -17.625730
Li -47.843438 50.796683 -19.215040
Li -49.711783 50.796683 -19.215040
Li -48.777610 51.100214 -17.625731
Li -48.777610 49.510905 -16.643483
Fe -32.014566 50.796678 -28.519017
Li -33.526089 50.305555 -29.313671
Li -32.014566 50.796678 -30.295919
Li -32.014566 49.207369 -29.313672
Li -32.948738 52.082456 -29.313673
Li -32.948738 49.510900 -27.724362
Li -32.014566 50.796680 -26.742116
Li -32.014566 52.385988 -27.724364
Li -33.526089 51.287802 -27.724363
Li -31.080394 52.082456 -29.313673
Li -30.503043 50.305555 -29.313671
Li -31.080394 49.510900 -27.724362
Li -30.503043 51.287802 -27.724363
Fe -34.460261 54.162879 -50.305592
Li -34.460261 52.573570 -51.100246
Li -33.526089 52.877102 -49.510937
Li -35.394434 52.877102 -49.510937
Li -35.971784 53.671755 -51.100246
Li -35.971784 54.654003 -49.510938
Li -34.460261 54.162879 -52.082494
Li -34.460261 54.162881 -48.528690
Li -34.460261 55.752189 -49.510938
Li -35.394434 55.448657 -51.100247
Li -33.526089 55.448657 -51.100247
Li -32.948738 53.671755 -51.100246
Li -32.948738 54.654003 -49.510938
Fe -34.460261 65.056173 -32.679889
Li -34.460261 63.466864 -33.474543
Li -35.971784 64.565050 -33.474543
Li -35.394434 66.341951 -33.474544
Li -34.460261 65.056173 -34.456791
Li -32.948738 64.565050 -33.474543
Li -33.526089 66.341951 -33.474544
Li -35.394434 63.770396 -31.885234
Li -33.526089 63.770396 -31.885234
Li -35.971784 65.547298 -31.885234
Li -34.460261 65.056175 -30.902987
Li -32.948738 65.547298 -31.885234
Li -34.460261 66.645484 -31.885235
Fe -51.223306 70.502813 -43.573178
Li -52.734828 70.011689 -44.367832
Li -51.223306 68.913503 -44.367832
Li -51.223306 70.502811 -45.350080
Li -52.157478 71.788590 -44.367833
Li -52.157478 69.217035 -42.778523
Li -51.223306 72.092122 -42.778524
Li -52.734828 70.993936 -42.778524
Li -51.223306 70.502813 -41.796276
Li -49.711783 70.011689 -44.367832
Li -50.289133 71.788590 -44.367833
Li -50.289133 69.217035 -42.778523
Li -49.711783 70.993936 -42.778524
Fe -25.611653 59.609535 -21.786600
Li -27.123176 59.118411 -22.581254
Li -25.611653 58.020226 -22.581253
Li -25.611653 59.609535 -23.563501
Li -24.100130 59.118411 -22.581254
Li -26.545825 58.323757 -20.991945
Li -24.677480 58.323757 -20.991945
Li -25.611653 59.609536 -20.009699
Li -26.545825 60.895313 -22.581255
Li -24.677480 60.895313 -22.581255
Li -27.123176 60.100659 -20.991945
Li -24.100130 60.100659 -20.991945
Li -25.611653 61.198845 -20.991946
Fe -28.057348 62.975739 -36.046099
Li -29.568871 62.484616 -36.840753
Li -28.057348 61.386430 -36.840753
Li -28.057348 62.975739 -37.823001
Li -28.991520 61.689962 -35.251444
Li -29.568871 63.466864 -35.251444
Li -28.057348 62.975741 -34.269197
Li -28.991520 64.261517 -36.840754
Li -28.057348 64.565049 -35.251445
Li -26.545825 62.484616 -36.840753
Li -26.545825 63.466864 -35.251444
Li -27.123176 61.689962 -35.251444
Li -27.123176 64.261517 -36.840754
Fe -21.654435 40.698041 -40.206954
Li -23.165958 40.206917 -41.001608
Li -23.165958 41.189165 -39.412300
Li -21.654435 39.108731 -41.001607
Li -21.654435 40.698040 -41.983855
Li -20.142912 40.206917 -41.001608
Li -22.588607 41.983819 -41.001609
Li -20.720262 41.983819 -41.001609
Li -20.720262 39.412264 -39.412298
Li -22.588607 39.412264 -39.412298
Li -21.654435 40.698041 -38.430052
Li -20.142912 41.189165 -39.412300
Li -21.654435 42.287350 -39.412300
Fe -32.014566 72.583253 -25.152817
Li -33.526089 72.092130 -25.947471
Li -32.948738 73.869030 -25.947472
Li -32.014566 72.583253 -26.929718
Li -32.014566 70.993944 -25.947470
Li -30.503043 72.092130 -25.947471
Li -31.080394 73.869030 -25.947472
Li -33.526089 73.074377 -24.358162
Li -32.948738 71.297475 -24.358162
Li -30.503043 73.074377 -24.358162
Li -31.080394 71.297475 -24.358162
Li -32.014566 72.583254 -23.375915
Li -32.014566 74.172563 -24.358163
Fe -55.180524 51.591325 -46.939380
Li -55.180524 51.591324 -48.716282
Li -55.180524 50.002016 -47.734034
Li -56.114696 50.305548 -46.144725
Li -55.180524 51.591325 -45.162479
Li -56.692046 51.100201 -47.734034
Li -56.114696 52.877103 -47.734035
Li -56.692046 52.082448 -46.144726
Li -54.246351 50.305548 -46.144725
Li -54.246351 52.877103 -47.734035
Li -53.669001 51.100201 -47.734034
Li -53.669001 52.082448 -46.144726
Li -55.180524 53.180634 -46.144727
Fe -24.100130 50.796678 -28.519017
Li -24.100130 49.207369 -29.313672
Li -24.100130 50.796678 -30.295919
Li -23.165958 52.082456 -29.313673
Li -25.034302 52.082456 -29.313673
Li -25.611653 51.287802 -27.724363
Li -25.611653 50.305555 -29.313671
Li -24.100130 52.385988 -27.724364
Li -23.165958 49.510900 -27.724362
Li -25.034302 49.510900 -27.724362
Li -24.100130 50.796680 -26.742116
Li -22.588607 50.305555 -29.313671
Li -22.588607 51.287802 -27.724363
Fe -48.777610 60.404185 -32.679887
Li -50.289133 59.913061 -33.474540
Li -48.777610 58.814876 -33.474541
Li -47.266088 59.913061 -33.474540
Li -49.711783 61.689963 -33.474542
Li -48.777610 60.404184 -34.456789
Li -47.843438 61.689963 -33.474542
Li -49.711783 59.118408 -31.885232
Li -47.843438 59.118408 -31.885232
Li -50.289133 60.895308 -31.885233
Li -48.777610 60.404186 -30.902985
Li -47.266088 60.895308 -31.885233
Li -48.777610 61.993495 -31.885233
Fe -25.611653 35.251406 -21.786589
Li -25.611653 35.251405 -23.563491
Li -25.611653 33.662096 -22.581243
Li -27.123176 34.760283 -22.581243
Li -26.545825 36.537184 -22.581244
Li -24.677480 36.537184 -22.581244
Li -26.545825 33.965628 -20.991934
Li -24.677480 33.965628 -20.991934
Li -25.611653 35.251407 -20.009687
Li -27.123176 35.742530 -20.991935
Li -25.611653 36.840716 -20.991935
Li -24.100130 34.760283 -22.581243
Li -24.100130 35.742530 -20.991935
Fe -48.777610 49.510898 -33.474536
Li -50.289133 49.019774 -34.269191
Li -48.777610 47.921588 -34.269190
Li -47.266088 49.019774 -34.269191
Li -49.711783 50.796676 -34.269192
Li -48.777610 49.510897 -35.251438
Li -47.843438 50.796676 -34.269192
Li -49.711783 48.225120 -32.679881
Li -47.843438 48.225120 -32.679881
Li -47.266088 50.002022 -32.679882
Li -50.289133 50.002022 -32.679882
Li -48.777610 49.510899 -31.697634
Li -48.777610 51.100208 -32.679882
Fe -35.971784 67.136611 -21.786603
Li -35.971784 67.136611 -23.563505
Li -35.971784 65.547302 -22.581257
Li -36.905956 65.850834 -20.991949
Li -37.483307 66.645487 -22.581257
Li -37.483307 67.627735 -20.991949
Li -34.460261 66.645487 -22.581257
Li -34.460261 67.627735 -20.991949
Li -35.037612 65.850834 -20.991949
Li -35.971784 67.136612 -20.009702
Li -36.905956 68.422389 -22.581259
Li -35.037612 68.422389 -22.581259
Li -35.971784 68.725921 -20.991950
Fe -24.100130 54.957540 -36.840749
Li -24.100130 54.957540 -38.617651
Li -24.100130 53.368231 -37.635404
Li -25.611653 54.466416 -37.635404
Li -25.034302 56.243318 -37.635405
Li -23.165958 56.243318 -37.635405
Li -25.611653 55.448664 -36.046095
Li -25.034302 53.671762 -36.046094
Li -23.165958 53.671762 -36.046094
Li -24.100130 54.957541 -35.063848
Li -24.100130 56.546850 -36.046096
Li -22.588607 54.466416 -37.635404
Li -22.588607 55.448664 -36.046095
Fe -51.223306 35.251403 -29.313665
Li -51.223306 35.251402 -31.090566
Li -52.734828 34.760279 -30.108320
Li -51.223306 33.662093 -30.108319
Li -52.157478 36.537181 -30.108320
Li -52.157478 33.965625 -28.519010
Li -52.734828 35.742527 -28.519011
Li -51.223306 35.251404 -27.536763
Li -51.223306 36.840712 -28.519011
Li -49.711783 34.760279 -30.108320
Li -50.289133 36.537181 -30.108320
Li -50.289133 33.965625 -28.519010
Li -49.711783 35.742527 -28.519011
Fe -34.460261 47.430467 -29.313670
Li -35.971784 46.939344 -30.108324
Li -35.394434 48.716245 -30.108326
Li -34.460261 45.841157 -30.108324
Li -34.460261 47.430466 -31.090572
Li -32.948738 46.939344 -30.108324
Li -33.526089 48.716245 -30.108326
Li -35.394434 46.144690 -28.519015
Li -35.971784 47.921591 -28.519016
Li -33.526089 46.144690 -28.519015
Li -34.460261 49.019777 -28.519016
Li -34.460261 47.430468 -27.536768
Li -32.948738 47.921591 -28.519016
Fe -42.374697 36.537176 -39.412297
Li -43.886220 36.046052 -40.206952
Li -42.374697 34.947866 -40.206951
Li -42.374697 36.537175 -41.189199
Li -40.863174 36.046052 -40.206952
Li -43.308870 35.251399 -38.617642
Li -43.886220 37.028300 -38.617643
Li -42.374697 36.537177 -37.635395
Li -41.440525 35.251399 -38.617642
Li -40.863174 37.028300 -38.617643
Li -43.308870 37.822954 -40.206953
Li -41.440525 37.822954 -40.206953
Li -42.374697 38.126486 -38.617643
Fe -47.266088 65.056170 -40.206965
Li -47.266088 63.466861 -41.001619
Li -47.266088 65.056170 -41.983867
Li -48.777610 64.565047 -41.001618
Li -48.200260 66.341948 -41.001620
Li -48.200260 63.770393 -39.412310
Li -48.777610 65.547294 -39.412311
Li -47.266088 65.056172 -38.430063
Li -47.266088 66.645480 -39.412311
Li -45.754565 64.565047 -41.001618
Li -46.331915 66.341948 -41.001620
Li -46.331915 63.770393 -39.412310
Li -45.754565 65.547294 -39.412311
Fe -38.417479 57.037970 -42.778517
Li -39.351652 55.752193 -41.983862
Li -39.929002 56.546846 -43.573172
Li -39.351652 58.323747 -43.573172
Li -39.929002 57.529094 -41.983863
Li -38.417479 57.037969 -44.555419
Li -38.417479 55.448660 -43.573171
Li -36.905956 56.546846 -43.573172
Li -37.483307 55.752193 -41.983862
Li -37.483307 58.323747 -43.573172
Li -36.905956 57.529094 -41.983863
Li -38.417479 58.627280 -41.983863
Li -38.417479 57.037971 -41.001615
Fe -38.417479 46.144697 -11.687962
Li -39.351652 44.858919 -10.893307
Li -39.929002 45.653574 -12.482616
Li -39.929002 46.635822 -10.893307
Li -39.351652 47.430475 -12.482617
Li -38.417479 44.555387 -12.482616
Li -37.483307 44.858919 -10.893307
Li -36.905956 45.653574 -12.482616
Li -38.417479 46.144696 -13.464864
Li -37.483307 47.430475 -12.482617
Li -38.417479 46.144698 -9.911060
Li -36.905956 46.635822 -10.893307
Li -38.417479 47.734007 -10.893308
Fe -25.611653 46.144690 -28.519015
Li -25.611653 44.555380 -29.313669
Li -26.545825 44.858912 -27.724360
Li -24.677480 44.858912 -27.724360
Li -25.611653 46.144689 -30.295917
Li -27.123176 45.653566 -29.313669
Li -26.545825 47.430467 -29.313670
Li -27.123176 46.635813 -27.724361
Li -25.611653 46.144691 -26.742114
Li -25.611653 47.734000 -27.724361
Li -24.100130 46.635813 -27.724361
Li -24.100130 45.653566 -29.313669
Li -24.677480 47.430467 -29.313670
Fe -44.820392 33.170972 -25.152799
Li -44.820392 33.170971 -26.929700
Li -43.886220 34.456750 -25.947454
Li -45.754565 34.456750 -25.947454
Li -43.886220 31.885194 -24.358144
Li -45.754565 31.885194 -24.358144
Li -44.820392 31.581662 -25.947453
Li -46.331915 33.662096 -24.358145
Li -46.331915 32.679849 -25.947453
Li -44.820392 34.760281 -24.358145
Li -44.820392 33.170973 -23.375897
Li -43.308870 33.662096 -24.358145
Li -43.308870 32.679849 -25.947453
Fe -44.820392 61.689966 -25.947466
Li -44.820392 61.689966 -27.724368
Li -43.308870 61.198842 -26.742120
Li -44.820392 60.100657 -26.742120
Li -46.331915 61.198842 -26.742120
Li -45.754565 62.975744 -26.742121
Li -43.886220 62.975744 -26.742121
Li -44.820392 63.279276 -25.152812
Li -45.754565 60.404188 -25.152811
Li -46.331915 62.181090 -25.152811
Li -44.820392 61.689967 -24.170564
Li -43.886220 60.404188 -25.152811
Li -43.308870 62.181090 -25.152811
Fe -28.057348 42.778476 -36.840744
Li -28.057348 41.189166 -37.635398
Li -28.057348 42.778474 -38.617645
Li -29.568871 42.287351 -37.635399
Li -28.991520 44.064254 -37.635399
Li -29.568871 43.269599 -36.046090
Li -28.057348 42.778476 -35.063843
Li -28.991520 41.492698 -36.046089
Li -28.057348 44.367784 -36.046090
Li -26.545825 42.287351 -37.635399
Li -27.123176 44.064254 -37.635399
Li -27.123176 41.492698 -36.046089
Li -26.545825 43.269599 -36.046090
Fe -28.057348 56.243317 -39.412306
Li -28.057348 56.243316 -41.189208
Li -28.057348 54.654007 -40.206960
Li -28.991520 54.957540 -38.617651
Li -29.568871 55.752193 -40.206960
Li -28.057348 57.832627 -38.617652
Li -28.991520 57.529095 -40.206961
Li -29.568871 56.734440 -38.617652
Li -28.057348 56.243318 -37.635405
Li -27.123176 54.957540 -38.617651
Li -26.545825 55.752193 -40.206960
Li -27.123176 57.529095 -40.206961
Li -26.545825 56.734440 -38.617652
