15625
# (c) 2025 a-prokhoda (Alexander S. Prokhoda)# Part of Quasicrystals Research Project
X -4.89138997 25.94741951 -36.84073311
X -25.61165041 5.14310877 -6.73242303
X -26.54582277 33.96561517 -43.57315742
X -35.97178063 16.83103085 -46.93936012
X -24.10012778 46.63581003 -25.94745679
X -0.93417236 54.16288522 -25.94746015
X -4.89138997 41.98383181 -3.36622911
X -35.39443036 28.51898398 -17.62571903
X -15.25152019 42.77847053 -38.61764205
X -44.82038822 65.85083083 -13.46487086
X -32.01456301 48.22512604 -10.09865262
X -25.61165041 17.62569886 -16.64346721
X -29.56886802 25.64388621 -41.98384475
X -56.69204106 25.15276911 -27.72434862
X -42.37469323 36.53719052 -0.00001631
X -32.01456301 50.79668123 -11.68796272
X -35.97178063 44.36778734 -20.99193647
X -25.61165041 67.93125803 -25.15281183
X -11.87165285 47.43045963 -36.84074270
X -28.05734540 42.77847805 -21.78659022
X -37.48330326 27.23321390 -0.00001216
X -0.93417236 20.50078159 -25.94744512
X -2.44569499 14.25949743 3.36620400
X -27.12317304 54.95754492 -14.25952047
X -21.65443279 43.26960939 -4.16088416
X -50.28912846 43.26959515 -36.04608637
X -35.97178063 31.88520222 -0.00001424
X -19.20873781 26.43856173 5.14309997
X -39.92899824 53.36823482 -16.83107566
X -25.61165041 13.46483022 -25.15278750
X -39.92899824 19.70612862 -22.58123440
X -48.77760583 38.61762108 -4.16088208
X -0.93417236 40.69805836 6.73240255
X -35.97178063 42.77847468 -29.31366543
X -9.78277995 52.87711852 -0.79467809
X -27.12317304 30.59940702 -38.61763660
X -6.40291260 50.79667451 -26.74211311
X -21.65443279 33.96561438 -45.35005884
X -21.65443279 38.12647550 -53.67179037
X -15.25152019 20.99189454 -49.51091788
X -40.86317060 62.97574058 -20.99194478
X -24.10012778 28.02785343 -33.47452367
X -21.65443279 65.05616777 -32.67988574
X -32.01456301 13.95595821 -15.05415663
X -52.73482345 15.54527087 -6.73242767
X -39.92899824 33.17095805 -49.51092332
X -16.18569255 28.02786688 -3.36622288
X -20.72026044 63.77040107 -7.52710368
X -4.89138997 35.25139613 -36.84073726
X -55.18051843 5.44663119 -25.94743840
X -17.69721518 31.09054173 -13.46485534
X -12.80582520 15.05415039 -0.00000672
X 11.87165285 36.53718716 -7.52709152
X -10.36013022 23.56346396 -19.21502576
X -11.29430258 30.59940702 -38.61763660
X -47.26608320 33.96562190 -28.51900702
X -17.69721518 61.19884331 -11.68796737
X 9.42595786 44.06425564 -22.58124527
X -16.76304282 27.23319630 -39.41228958
X -25.61165041 67.93126218 -15.84883521
X -8.84860759 12.17904255 -46.93935805
X -52.73482345 22.27767965 -33.47452111
X -20.14291017 45.35003995 -8.32174993
X -37.48330326 18.91146735 -37.82297691
X -21.65443279 27.23321806 9.30396445
X -11.87165285 33.96562862 -13.46485663
X -12.80582520 4.16086112 -8.32173153
X -36.90595299 39.90339195 -20.00968752
X -24.67747805 43.26960266 -19.21503456
X -15.25152019 42.77847389 -31.09056685
X -25.61165041 35.25140621 -14.25951167
X -12.80582520 6.73240127 -43.57314526
X -33.52608564 33.66209019 -30.10831583
X -15.25152019 27.72432349 -31.09056013
X -39.92899824 29.01009436 -46.93936557
X -51.22330082 63.77038683 -39.41230589
X -12.80582520 26.92968140 -3.36622239
X -19.20873781 45.65356158 -29.31366672
X -3.95721762 47.43046635 -21.78659231
X -32.01456301 65.85082747 -20.99194606
X -42.37469323 50.00202746 -10.09865342
X 3.02304526 44.55537946 -21.78659103
X -8.84860759 23.07233519 -31.09055804
X -37.48330326 36.53717965 -24.35814334
X -14.31734783 44.06425820 -16.83107149
X -50.28912846 50.00202746 -10.09865342
X -46.33191084 28.51898814 -8.32174241
X 3.95721762 51.59132332 -39.41230045
X -52.73482345 50.79667451 -26.74211311
X -4.89138997 31.09052828 -43.57315614
X -0.93417236 12.17905599 -16.83105726
X -44.82038822 68.42237177 -46.93938317
X -33.52608564 41.00156991 -36.84073984
X -37.48330326 24.66164943 -19.21502625
X -32.01456301 26.43853918 -45.35005547
X -24.10012778 18.11681853 -25.15278958
X -12.80582520 21.78656927 -4.16087457
X -33.52608564 51.28779754 -27.72436028
X -28.05734540 14.25947647 -43.57314861
X -32.01456301 19.70614622 16.83104302
X -16.76304282 18.91147822 -13.46484990
X -46.33191084 21.78657263 3.36620063
X -19.20873781 11.38441054 3.36620528
X -39.92899824 44.06425148 -31.88522190
X -33.52608564 37.82296396 -10.09864798
X -15.25152019 42.77848556 -4.95553841
X 3.95721762 65.05616777 -32.67988574
X -33.52608564 48.71624730 -15.05417216
X -14.31734783 37.33182925 -35.25142925
X -28.05734540 40.20691278 -42.77850573
X 3.02304526 39.41226733 -22.58124320
X -32.94873537 49.51089691 -25.94745807
X -25.61165041 54.46641773 -22.58124992
X -34.46025800 18.91147822 -13.46484990
X -25.61165041 41.98381676 -37.02833274
X -26.54582277 20.50078831 -10.89329471
X -38.41747561 39.41226397 -30.10831839
X -55.18051843 23.07233598 -29.31365662
X -35.97178063 18.42035103 -21.78657935
X -34.46025800 47.43046556 -23.56349373
X -3.95721762 25.64389788 -15.84881632
X -63.09495366 33.96561853 -36.04608221
X -3.37986735 30.59940782 -36.84073519
X -23.16595542 52.08244042 -53.67179660
X -24.67747805 39.10873482 -25.94745343
X -28.63469567 35.25140621 -14.25951167
X -26.54582277 33.96562525 -20.99193182
X -38.41747561 28.51897726 -32.67986942
X -46.33191084 25.94742623 -21.78658271
X -29.56886802 1.28576671 -25.15278206
X -29.56886802 29.80476572 -9.11639745
X -60.64925868 23.86699566 -17.62571695
X -19.20873781 35.74253083 -11.68795600
X -42.37469323 23.07235358 10.09862079
X -48.77760583 49.51088604 -50.30558509
X 3.95721762 38.12647550 -53.67179037
X -20.14291017 56.24331915 -22.58125071
X -28.05734540 52.08245466 -21.78659438
X -35.97178063 20.99190957 -15.84881425
X -15.25152019 38.61761357 -20.99193390
X -50.28912846 18.91147486 -20.99192510
X -27.12317304 54.95753820 -29.31367087
X -29.56886802 21.48303676 -7.52708479
X -25.61165041 48.71623563 -41.18920059
X -7.33708496 56.24331915 -22.58125071
X -27.12317304 35.74251659 -43.57315821
X -33.52608564 10.89327247 -29.31365119
X 1.51152263 26.43855342 -13.46485326
X -38.41747561 32.67984766 -20.19727677
X -42.37469323 60.89529658 -46.93937981
X -32.01456301 15.54526335 -23.56347949
X -3.95721762 16.33991039 -40.20693918
X -25.61165041 17.62569390 -27.72434525
X -24.10012778 35.74252411 -26.74210640
X -33.52608564 32.67983758 -42.77850237
X -6.40291260 50.79667787 -19.21503792
X -33.52608564 37.82294636 -49.51092539
X -15.25152019 36.04604910 -40.20694798
X -26.54582277 43.26959179 -43.57316157
X -52.73482345 23.86699566 -17.62571695
X -3.95721762 51.59131996 -46.93937565
X -43.88621586 27.72431677 -46.14471052
X -46.33191084 52.87710842 -23.37590368
X -33.52608564 48.71624058 -30.10832255
X -50.28912846 38.12649310 -14.25951295
X -29.56886802 44.85889772 -50.30558301
X -43.88621586 41.18916795 -24.35814541
X -11.29430258 4.65196735 -46.93935470
X -28.05734540 64.56505739 -3.36623920
X -28.63469567 46.14468956 -19.21503584
X -20.14291017 25.15277246 -20.19727342
X 11.87165285 40.69805084 -10.09864927
X -38.41747561 66.34193785 -50.30559260
X -29.56886802 29.80476078 -20.19727549
X -38.41747561 36.84070542 -36.04608351
X -33.52608564 21.78655166 -43.57315198
X -10.36013022 45.35003244 -25.15280174
X -29.56886802 36.53716540 -56.24334555
X -30.50304038 25.94742959 -14.25950751
X -46.33191084 15.05414368 -15.05415712
X -34.46025800 40.69805164 -8.32174785
X -36.90595299 41.49270045 -20.99193518
X -32.01456301 65.85081739 -43.57317166
X -40.86317060 49.51089355 -33.47453327
X -44.82038822 39.90339195 -20.00968752
X -37.48330326 25.64388621 -41.98384475
X -29.56886802 36.53717707 -30.10831711
X -41.44052087 13.46482606 -34.45676411
X -0.93417236 33.96562605 -19.21503040
X -39.92899824 29.01010108 -31.88521517
X -4.89138997 39.41227405 -7.52709281
X -24.67747805 33.96562269 -26.74210560
X -17.69721518 54.46642781 -0.00002432
X 0.00000000 39.41226653 -24.35814461
X -15.25152019 33.47450143 -21.78658607
X -19.20873781 38.92114270 -25.15279887
X -51.22330082 31.09053916 -19.21502912
X -18.27456545 36.04606254 -10.09864719
X -27.12317304 17.13457088 -26.74209808
X -32.01456301 17.13457423 -19.21502288
X -43.30886559 35.25140285 -21.78658687
X -37.48330326 62.48462763 2.57152799
X -34.46025800 47.43048060 10.09860991
X -47.84343347 48.22512684 -8.32175121
X -17.69721518 54.46641773 -22.58124992
X -13.73999756 40.69804492 -23.37589824
X -8.84860759 47.43045211 -53.67179453
X -32.01456301 18.11683277 6.73241263
X -28.05734540 27.72433517 -4.95553169
X -47.26608320 36.53719052 -0.00001631
X 0.00000000 52.87710763 -25.15280510
X -25.61165041 17.62568382 -50.30557085
X -9.78277995 44.55537274 -36.84074142
X -63.09495366 40.69804749 -17.62572447
X -67.05217128 41.98382508 -18.42037952
X -20.72026044 28.51896638 -57.03799644
X -33.52608564 25.94741951 -36.84073311
X -59.13773605 32.67984094 -35.25142717
X -34.46025800 33.96562110 -30.29590844
X -48.77760583 56.24332922 -0.00002512
X -47.84343347 37.33183341 -25.94745264
X -32.01456301 39.90337692 -53.67179116
X -10.36013022 41.18916874 -22.58124399
X -29.56886802 29.80474990 -44.55540250
X -32.01456301 56.54685421 -13.46486670
X -20.72026044 39.41226733 -22.58124320
X -30.50304038 28.51897646 -34.45677084
X -23.16595542 46.93933165 -46.93937357
X -17.69721518 25.94743375 -4.95553089
X -25.61165041 2.57154094 -33.47451231
X -19.20873781 39.90339116 -21.78658894
X -16.76304282 36.53719804 16.83103550
X -50.28912846 20.50077823 -33.47452032
X -16.76304282 38.12648895 -23.56348957
X -20.72026044 59.60953322 -14.25952254
X -43.30886559 37.82296475 -8.32174657
X -35.97178063 58.81486938 -35.25143884
X -20.72026044 31.09053580 -26.74210431
X -38.41747561 52.87709339 -57.03800732
X 1.51152263 15.54525742 -36.84072846
X -15.25152019 31.88520973 16.83103757
X -11.29430258 15.54525327 -46.14470508
X -32.01456301 29.01010781 -16.83106477
X -17.69721518 44.55537274 -36.84074142
X -16.76304282 47.43045884 -38.61764412
X -28.05734540 26.13502843 -0.00001167
X -41.44052087 37.82295724 -25.15279838
X -32.01456301 -6.24131184 -32.67985390
X -34.46025800 23.07233519 -31.09055804
X -43.88621586 37.02829754 -36.84073806
X -16.76304282 1.28575999 -40.20693246
X -22.58860515 24.35811949 -16.83106269
X -41.44052087 33.66208267 -46.93936764
X -11.29430258 17.13457760 -11.68794769
X -15.25152019 5.93776175 -10.09863374
X 3.95721762 43.26961275 3.36619104
X -35.97178063 56.24331915 -22.58125071
X -39.92899824 33.17095469 -57.03799851
X -25.61165041 24.35812445 -5.75018466
X -35.97178063 29.31363695 -20.99192975
X 1.51152263 54.95753483 -36.84074607
X -38.41747561 16.03638876 -19.21502239
X -17.69721518 13.46482606 -34.45676411
X -12.80582520 50.30553901 -53.67179581
X 1.51152263 15.54527087 -6.73242767
X -38.41747561 70.50280906 -36.04609854
X -6.40291260 22.27769389 -1.58931889
X -35.97178063 30.29589627 6.73240719
X -11.29430258 23.86699982 -8.32174033
X -34.46025800 28.21544890 -26.74210303
X -19.20873781 37.33182174 -52.08248107
X -28.05734540 -0.79466049 -13.46484110
X -25.61165041 32.67985518 -3.36622496
X -20.14291017 22.58122560 -0.00001008
X -32.01456301 24.84924492 -12.48260560
X -31.08039065 25.15276990 -25.94744719
X -35.97178063 5.93776175 -10.09863374
X -34.46025800 16.33993135 6.73241343
X -39.35164797 29.80476157 -18.42037407
X -48.77760583 16.83103837 -30.10830831
X -24.10012778 29.01010860 -15.05416335
X -29.56886802 40.69803997 -34.45677628
X -25.61165041 52.87709339 -57.03800732
X 3.02304526 48.71624058 -30.10832255
X -32.01456301 22.27770061 13.46483150
X -23.16595542 36.04607006 6.73240463
X -40.86317060 25.15277998 -3.36622159
X -38.41747561 39.41227742 -0.00001760
X -3.95721762 58.32374555 -36.04609310
X -43.88621586 38.61762444 3.36619312
X -52.73482345 61.68996042 -25.94746351
X -7.91443523 17.62569806 -18.42036863
X -7.91443523 48.71625067 -7.52709696
X -4.89138997 41.98382923 -9.11640290
X -21.65443279 42.28735758 -15.05416928
X -27.12317304 12.97371647 -3.36621615
X -7.33708496 29.31364783 3.36619727
X -38.41747561 41.98382508 -18.42037952
X -12.80582520 39.41225565 -48.71627164
X -48.77760583 3.36620063 -21.78657263
X -15.25152019 27.72432686 -23.56348492
X -36.90595299 54.95754828 -6.73244527
X -16.76304282 69.21704234 -10.89331647
X -29.56886802 36.53716955 -46.93936893
X -56.69204106 34.45674652 -25.94745135
X -13.73999756 20.50079168 -3.36621952
X -47.84343347 42.47493882 -40.20695086
X -12.80582520 67.93125803 -25.15281183
X -37.48330326 43.26959179 -43.57316157
X -38.41747561 22.76881099 -15.84881504
X -12.80582520 17.62568382 -50.30557085
X -43.88621586 34.45674908 -20.19727757
X -34.46025800 27.23321390 -0.00001216
X -47.84343347 34.76028574 -7.52709072
X -15.25152019 46.93933837 -31.88522318
X -19.20873781 59.11839515 -46.93937901
X -50.28912846 54.16288858 -18.42038495
X -19.20873781 0.49112047 -6.73242095
X -19.20873781 34.76028238 -15.05416593
X -29.56886802 33.96563614 3.36619520
X -14.31734783 8.81283519 -40.20693582
X -43.88621586 31.88518461 -39.41229165
X -40.86317060 23.56347405 3.36619984
X -19.20873781 54.95754828 -6.73244527
X -27.12317304 22.27768637 -18.42037072
X -28.05734540 14.25949407 -4.16087120
X -30.50304038 24.35812030 -15.05416128
X 5.46874024 34.45674988 -18.42037615
X -24.67747805 23.07234606 -6.73243103
X 3.02304526 24.35811278 -31.88521309
X -23.16595542 46.93933501 -39.41229838
X -48.77760583 29.31363023 -36.04608014
X -4.89138997 41.98381420 -42.77850652
X -15.25152019 36.04605245 -32.67987278
X -39.92899824 35.74251659 -43.57315821
X -38.41747561 39.41226238 -33.66212123
X -59.13773605 28.51898398 -17.62571903
X -32.01456301 44.06424732 -41.18919851
X -42.37469323 29.80477581 13.46482814
X -32.01456301 12.97371055 -16.64346514
X -40.86317060 34.45675067 -16.64347472
X -46.33191084 48.71623643 -39.41229917
X -35.97178063 38.61762108 -4.16088208
X -39.92899824 42.47494219 -32.67987565
X -8.84860759 21.48302668 -30.10831039
X -25.61165041 47.73399886 -18.42038208
X -19.20873781 12.97371727 -1.58931474
X -39.35164797 54.16289195 -10.89330975
X -48.77760583 10.09862286 -18.42036527
X 0.00000000 28.51898734 -10.09864383
X -2.44569499 30.29589291 -0.79466800
X -29.56886802 33.96562862 -13.46485663
X -28.05734540 20.99190126 -34.45676748
X -32.01456301 4.65198831 -0.00000208
X 5.46874024 42.77847132 -36.84074063
X -52.73482345 30.59940366 -46.14471180
X 3.02304526 24.35811949 -16.83106269
X -37.48330326 32.37632268 -6.73243518
X -44.82038822 59.11839852 -39.41230382
X -29.56886802 60.89529993 -39.41230461
X -34.46025800 1.28577008 -17.62570686
X -19.20873781 50.79668459 -4.16088753
X -8.84860759 51.59132332 -39.41230045
X -21.65443279 50.00202074 -25.15280382
X -23.16595542 42.77848556 -4.95553841
X -32.94873537 38.61761772 -11.68795728
X -14.31734783 35.74252411 -26.74210640
X -31.08039065 30.29587531 -40.20694541
X -38.41747561 35.25139533 -38.61763868
X -27.12317304 41.49270461 -11.68795856
X -16.76304282 33.96561438 -45.35005884
X -17.69721518 52.87710842 -23.37590368
X -39.92899824 57.52909930 -17.62573198
X -28.05734540 27.72433437 -6.73243311
X -32.01456301 13.95596156 -7.52708143
X -2.44569499 38.61760348 -43.57315949
X -32.01456301 59.11839852 -39.41230382
X -4.89138997 17.62569054 -35.25142045
X -29.56886802 27.23320303 -24.35813918
X -17.69721518 28.51897309 -41.98384604
X -40.86317060 7.52706175 -30.10830415
X -7.33708496 23.56346317 -20.99192717
X -51.22330082 6.73242223 3.36620735
X -35.97178063 29.31363358 -28.51900494
X -12.80582520 33.66209691 -15.05416544
X -15.25152019 56.24332587 -7.52710032
X -32.01456301 30.59940782 -36.84073519
X -13.73999756 38.12649389 -12.48261153
X -6.40291260 50.79666699 -43.57316494
X -14.31734783 46.63580666 -33.47453199
X -35.03760827 35.74252668 -20.99193261
X -21.65443279 36.53717707 -30.10831711
X -19.20873781 -2.08044400 -25.94743503
X -12.80582520 59.60952907 -23.56349916
X -36.90595299 26.43855006 -20.99192846
X -27.12317304 26.43853246 -60.40420588
X -17.69721518 16.03638125 -36.04607421
X -20.72026044 48.71623979 -31.88522397
X -27.12317304 57.52909594 -25.15280718
X -11.29430258 19.70611775 -46.93936141
X -11.29430258 46.63582011 -3.36623119
X -23.16595542 45.35004331 -0.79467473
X -20.72026044 17.62569134 -33.47451903
X -25.61165041 59.60952907 -23.56349916
X -23.16595542 34.45675739 -1.58932433
X -6.40291260 30.59941374 -23.56348621
X -21.65443279 44.85891869 -3.36623039
X -13.73999756 54.16289531 -3.36623455
X -19.20873781 50.79667787 -19.21503792
X -24.10012778 15.54526750 -14.25950287
X -15.25152019 29.31363774 -19.21502833
X -10.36013022 14.25949743 3.36620400
X -34.46025800 50.00202411 -17.62572862
X -17.69721518 47.73399886 -18.42038208
X -4.89138997 17.62569471 -25.94744383
X -2.44569499 3.36620063 -21.78657263
X -6.40291260 19.70611775 -46.93936141
X -16.76304282 14.75061453 -10.89329215
X -17.69721518 37.82294636 -49.51092539
X -25.61165041 8.32173233 5.93776254
X -4.89138997 10.89326911 -36.84072639
X -29.56886802 3.85731438 -43.57314397
X -18.27456545 20.99190541 -25.15279086
X -31.08039065 31.88518877 -30.10831504
X -37.48330326 23.07232846 -46.14470845
X -35.03760827 28.02786015 -18.42037328
X -60.64925868 19.70612447 -31.88521101
X -38.41747561 41.98381420 -42.77850652
X -16.76304282 23.07235358 10.09862079
X -30.50304038 52.87712187 6.73239711
X -47.84343347 15.54525998 -31.09055468
X -23.16595542 46.93934589 -15.05417136
X -19.20873781 18.11682941 -0.79466256
X -24.67747805 47.43047388 -4.95554049
X -15.25152019 18.42034767 -29.31365455
X -15.25152019 27.72433437 -6.73243311
X -24.10012778 33.17096476 -34.45677292
X -11.29430258 34.76027486 -31.88521774
X -33.52608564 35.25140701 -12.48261025
X -22.58860515 37.82295052 -40.20694878
X -17.69721518 35.25139869 -31.09056348
X -21.65443279 58.32375227 -20.99194270
X 5.46874024 45.35003659 -15.84882512
X -32.01456301 26.43856509 12.67017517
X -6.40291260 8.81285279 -0.79465840
X -25.61165041 20.19725165 -23.56348156
X -32.01456301 61.68995627 -35.25144013
X -27.12317304 19.70612111 -39.41228621
X -21.65443279 25.64389788 -15.84881632
X -33.52608564 19.21501488 -0.79466305
X -41.44052087 32.67985518 -3.36622496
X -24.67747805 27.23320639 -16.83106398
X -29.56886802 32.37631180 -31.09056220
X -7.33708496 27.72433101 -14.25950830
X -52.73482345 44.06425148 -31.88522190
X -28.63469567 39.41226733 -22.58124320
X -23.16595542 57.83263180 -14.25952175
X -4.89138997 32.67984174 -33.47452576
X -47.84343347 48.22512012 -23.37590161
X -4.89138997 41.98382587 -16.64347809
X -40.86317060 46.93934174 -24.35814798
X -25.61165041 28.51897309 -41.98384604
X -17.69721518 28.51899486 6.73240799
X -30.50304038 52.87710842 -23.37590368
X -6.40291260 29.01010524 -22.58123856
X -47.84343347 15.54524990 -53.67178028
X 3.02304526 31.09053837 -20.99193054
X -28.05734540 34.45674315 -33.47452655
X -13.73999756 28.21545484 -13.46485405
X -28.05734540 18.42034431 -36.84072975
X -23.16595542 40.20692029 -25.94745392
X -34.46025800 21.48304013 -0.00000959
X -34.46025800 27.23320639 -16.83106398
X -24.10012778 22.27768557 -20.19727212
X -60.64925868 19.70611775 -46.93936141
X -24.10012778 26.43855085 -19.21502704
X -27.12317304 41.49269789 -26.74210896
X -21.65443279 44.85891948 -1.58932898
X -12.80582520 10.89327919 -14.25950079
X -25.61165041 46.14468620 -26.74211104
X -24.10012778 8.81283855 -32.67986062
X -9.78277995 21.78655166 -43.57315198
X -21.65443279 16.33992799 -0.79466177
X -2.44569499 25.15276990 -25.94744719
X -21.65443279 12.17905006 -30.10830624
X -0.93417236 43.26960524 -13.46486078
X -52.73482345 61.68996379 -18.42038831
X -25.61165041 6.73240799 -28.51899486
X -26.54582277 25.64389373 -25.15279294
X 1.51152263 39.90340540 10.09861326
X 7.91443523 31.09053916 -19.21502912
X -0.93417236 40.69803740 -40.20695005
X -15.25152019 27.72432428 -29.31365870
X -19.20873781 26.43853582 -52.87713067
X -43.88621586 38.61761020 -28.51900910
X -18.27456545 31.88518125 -46.93936685
X -32.01456301 24.84925500 10.09861999
X -51.22330082 20.19726669 10.09862207
X -21.65443279 44.85891196 -18.42038079
X -10.36013022 14.25948734 -19.21502160
X -28.05734540 10.09861870 -27.72434189
X -51.22330082 21.78655503 -36.04607678
X -44.82038822 52.38597964 -35.25143597
X -20.14291017 56.24332922 -0.00002512
X -23.16595542 31.88520973 16.83103757
X -37.48330326 21.48303261 -16.83106142
X -47.84343347 42.47494554 -25.15280046
X -19.20873781 65.85081739 -43.57317166
X -32.01456301 53.36822138 -46.93937645
X -29.56886802 3.85732110 -28.51899357
X -16.76304282 43.26960603 -11.68795936
X -16.18569255 33.17096557 -32.67987150
X -32.01456301 29.01009436 -46.93936557
X -23.16595542 31.88518718 -33.66211788
X -23.16595542 53.67175388 -43.57316622
X -13.73999756 31.39407839 -0.79466850
X -19.20873781 70.01169531 -14.25952719
X -11.29430258 12.97370304 -33.47451695
X -7.33708496 42.77848141 -14.25951503
X -17.69721518 28.51897646 -34.45677084
X 3.95721762 23.07233598 -29.31365662
X -27.12317304 46.63581339 -18.42038159
X -6.40291260 30.59940366 -46.14471180
X -56.69204106 56.24331578 -30.10832591
X -32.94873537 27.72432093 -36.84073390
X -52.73482345 50.79668795 3.36618767
X -24.10012778 33.17095469 -57.03799851
X -15.25152019 20.99191966 6.73241135
X -8.84860759 29.80475485 -33.47452447
X -21.65443279 36.53716540 -56.24334555
X -29.56886802 38.12648638 -29.31366335
X -42.37469323 25.64389373 -25.15279294
X -20.14291017 31.88519885 -7.52708944
X -16.76304282 49.01977566 -20.99193855
X -63.09495366 23.07234606 -6.73243103
X -21.65443279 14.75061789 -3.36621695
X -20.14291017 53.67176139 -26.74211441
X 0.00000000 43.57312686 -34.45677756
X -39.92899824 34.76028159 -16.83106733
X -26.54582277 33.96563614 3.36619520
X -33.52608564 24.35811614 -24.35813789
X -15.25152019 57.83263180 -14.25952175
X -19.20873781 11.38439630 -28.51899694
X -26.54582277 12.17904927 -31.88520766
X -42.37469323 40.69804492 -23.37589824
X -20.72026044 26.92967132 -25.94744799
X -7.33708496 29.31364031 -13.46485454
X -6.40291260 48.22512604 -10.09865262
X -20.72026044 46.14468541 -28.51901246
X -28.05734540 53.67177148 -4.16088880
X -15.25152019 23.56345981 -28.51900238
X -12.80582520 28.51898398 -17.62571903
X -31.08039065 20.99189869 -40.20694126
X -19.20873781 48.22512684 -8.32175121
X -34.46025800 23.07234350 -12.48260481
X -35.97178063 56.24331578 -30.10832591
X -25.61165041 33.66209355 -22.58124063
X -27.12317304 48.22512604 -10.09865262
X -6.40291260 4.65197822 -22.58122767
X -19.20873781 24.84924748 -6.73243183
X -24.10012778 37.33183598 -20.19727885
X -10.36013022 16.83104846 -7.52708271
X -7.33708496 60.40418699 -15.84883185
X -10.36013022 25.15276654 -33.47452239
X -46.33191084 44.55538619 -6.73244062
X -15.25152019 62.97573722 -28.51901998
X -25.61165041 46.14468956 -19.21503584
X -10.36013022 30.29589291 -0.79466800
X 3.02304526 37.82295724 -25.15279838
X -28.63469567 24.35811614 -24.35813789
X -32.01456301 38.92113935 -32.67987407
X -3.95721762 58.32375563 -13.46486750
X -39.92899824 11.38440302 -13.46484653
X -43.88621586 33.47450143 -21.78658607
X -25.61165041 25.94743039 -12.48260609
X 9.42595786 44.06425900 -15.05417008
X -8.84860759 49.01977901 -13.46486335
X -10.36013022 7.52706175 -30.10830415
X -21.65443279 47.43046971 -14.25951711
X -33.52608564 67.93126218 -15.84883521
X -42.37469323 47.43046220 -31.09056892
X -23.16595542 11.68792959 -23.37588528
X -6.40291260 35.74253755 3.36619439
X -16.76304282 9.60750576 -4.16086913
X -24.10012778 29.01011532 -0.00001296
X -30.50304038 24.35812702 -0.00001088
X -20.14291017 22.58121551 -22.58123568
X -32.01456301 59.11839515 -46.93937901
X 1.51152263 26.43856094 3.36619855
X -0.93417236 47.43047388 -4.95554049
X -16.76304282 51.59134092 -0.00002304
X -12.80582520 50.30554653 -36.84074399
X -59.13773605 46.14468876 -20.99193726
X -34.46025800 38.12648301 -36.84073855
X -35.97178063 34.45674652 -25.94745135
X -37.48330326 25.64388957 -34.45676956
X -10.36013022 53.67176061 -28.51901582
X -27.12317304 15.54526750 -14.25950287
X -27.12317304 15.54525327 -46.14470508
X -67.05217128 48.71625403 -0.00002176
X -17.69721518 61.19884668 -4.16089217
X -4.89138997 36.84071215 -20.99193310
X -44.82038822 -2.08044400 -25.94743503
X -34.46025800 16.33991711 -25.15278878
X -29.56886802 54.16289531 -3.36623455
X -51.22330082 -0.00000336 -7.52707520
X -50.28912846 58.32374970 -26.74211648
X -17.69721518 24.35812030 -15.05416128
X -17.69721518 26.92967132 -25.94744799
X -20.14291017 34.45675660 -3.36622575
X -12.80582520 52.87711100 -17.62572991
X -21.65443279 59.91306572 -10.89331232
X -29.56886802 16.33992463 -8.32173697
X -59.13773605 41.98382508 -18.42037952
X -28.05734540 56.24331578 -30.10832591
X -16.76304282 40.69803661 -41.98385148
X -12.80582520 24.35812030 -15.05416128
X -15.25152019 47.92159018 -20.99193806
X -31.08039065 14.25947647 -43.57314861
X -34.46025800 27.23319967 -31.88521437
X 3.95721762 5.44663792 -10.89328799
X -47.26608320 47.43046299 -29.31366750
X 5.46874024 49.51090028 -18.42038287
X -20.14291017 60.40418699 -15.84883185
X -28.05734540 67.13659834 -36.84075150
X -31.08039065 37.02831099 -6.73243727
X -41.44052087 50.30555740 -12.48261697
X -2.44569499 23.56346060 -26.74210096
X -47.26608320 32.37632011 -12.48260897
X -36.90595299 19.70613871 -0.00000880
X -20.72026044 57.03796875 -33.47453663
X -51.22330082 46.14469212 -13.46486206
X -29.56886802 42.28735086 -30.10831969
X -38.41747561 52.87711100 -17.62572991
X -39.92899824 57.52909258 -32.67988238
X -10.36013022 40.20691614 -35.25143054
X -19.20873781 -6.24131184 -32.67985390
X -17.69721518 39.41227820 1.77688381
X -21.65443279 47.43046220 -31.09056892
X -8.84860759 36.53717292 -39.41229373
X -50.28912846 58.32375306 -19.21504128
X -32.01456301 30.59942542 2.57154223
X -19.20873781 15.54526078 -29.31365327
X -15.25152019 49.51088604 -50.30558509
X -56.69204106 38.61761357 -20.99193390
X -28.05734540 25.15278750 13.46483022
X -4.89138997 17.62569390 -27.72434525
X -47.84343347 23.86699231 -25.15279215
X -32.01456301 50.79668043 -13.46486414
X -15.25152019 67.13660170 -29.31367630
X -44.82038822 2.08042048 -26.74209136
X -28.05734540 64.56504395 -33.47453999
X -18.27456545 14.25948991 -13.46484783
X -50.28912846 31.39406415 -32.67987071
X -26.54582277 25.64388700 -40.20694334
X -44.82038822 50.79668123 -11.68796272
X -20.14291017 53.67176812 -11.68796400
X -23.16595542 -0.79466049 -13.46484110
X -17.69721518 35.25139533 -38.61763868
X -27.12317304 37.33182253 -50.30557964
X -32.01456301 53.36823146 -24.35815085
X -31.08039065 60.40418362 -23.37590704
X -33.52608564 47.73399213 -33.47453248
X -41.44052087 24.35811614 -24.35813789
X -19.20873781 76.74410746 -33.47454543
X -24.10012778 41.49269709 -28.51901038
X -42.37469323 51.59134092 -0.00002304
X -32.01456301 54.95754235 -20.00969425
X -25.61165041 48.71624395 -22.58124736
X -29.56886802 31.39407087 -17.62572031
X -20.14291017 18.42034431 -36.84072975
X -4.89138997 37.82297148 6.73240383
X -42.37469323 42.28735679 -16.83107070
X -11.29430258 26.43855342 -13.46485326
X -29.56886802 36.53719132 1.77688511
X -44.82038822 68.42237514 -39.41230797
X -3.37986735 50.79667451 -26.74211311
X -17.69721518 15.05414368 -15.05415712
X -16.76304282 43.26959931 -26.74210976
X -13.73999756 45.84114954 -39.41229789
X -21.65443279 23.07233519 -31.09055804
X -10.36013022 31.88520222 -0.00001424
X -44.82038822 54.95753068 -46.14472269
X -33.52608564 6.73241135 -20.99191966
X -47.26608320 25.64390460 -0.79466593
X -22.58860515 17.62569054 -35.25142045
X -0.93417236 12.17905263 -24.35813245
X -40.86317060 34.45674315 -33.47452655
X -56.69204106 52.08244793 -36.84074478
X -32.01456301 20.68838380 -4.16087408
X -34.46025800 32.37631595 -21.78658558
X -41.44052087 24.35810605 -46.93936349
X -40.86317060 7.52707184 -7.52707856
X -28.05734540 40.20692366 -18.42037872
X -4.89138997 26.92966796 -33.47452318
X -22.58860515 21.78655839 -28.51900158
X -38.41747561 16.03638541 -26.74209759
X -38.41747561 41.98381756 -35.25143133
X -23.16595542 31.88519212 -22.58123984
X -24.67747805 23.07233854 -23.56348285
X -20.72026044 63.77039771 -15.05417888
X -56.69204106 25.15276654 -33.47452239
X -56.69204106 31.88519549 -15.05416463
X -12.80582520 48.71623643 -39.41229917
X -35.97178063 -0.79467057 -36.04606669
X -23.16595542 31.88518125 -46.93936685
X -31.08039065 33.47449470 -36.84073647
X -25.61165041 21.78656670 -9.91104834
X -0.93417236 43.26961275 3.36619104
X -46.33191084 13.46482349 -40.20693790
X -30.50304038 52.87710427 -32.67988030
X 3.95721762 33.96561517 -43.57315742
X -12.80582520 57.03797131 -27.72436285
X -15.25152019 42.77847725 -23.56349164
X -35.97178063 19.40259276 -33.47451983
X -29.56886802 36.53717292 -39.41229373
X 3.02304526 17.62569727 -20.19727005
X -7.33708496 10.09862207 -20.19726669
X -15.25152019 45.35003659 -15.84882512
X -12.80582520 22.76881099 -15.84881504
X -48.77760583 42.77847805 -21.78659022
X -23.16595542 25.15277742 -9.11639538
X -56.69204106 20.99189869 -40.20694126
X -40.86317060 52.08245466 -21.78659438
X -2.44569499 56.24330826 -46.93937773
X -28.05734540 27.72433101 -14.25950830
X -3.37986735 39.90339788 -6.73243855
X -42.37469323 12.17905006 -30.10830624
X -20.14291017 16.83103085 -46.93936012
X -21.65443279 27.23320797 -13.27726114
X -19.20873781 26.43855837 -2.38397522
X -23.16595542 71.29747626 -7.52710704
X 1.51152263 50.79668123 -11.68796272
X -31.08039065 45.35003995 -8.32174993
X -8.84860759 60.89529658 -46.93937981
X -8.84860759 31.39406078 -40.20694590
X -28.05734540 31.88517373 -63.77041867
X -12.80582520 28.51897982 -26.92969564
X -43.88621586 25.15276990 -25.94744719
X -19.20873781 59.11840188 -31.88522861
X -40.86317060 25.15277663 -10.89329679
X -18.27456545 45.35003323 -23.37590032
X -31.08039065 31.88519549 -15.05416463
X -16.76304282 55.75219452 -25.15280639
X -17.69721518 35.25138861 -53.67178908
X -6.40291260 24.84925164 2.57154479
X -13.73999756 23.07233182 -38.61763325
X -28.05734540 62.97573049 -43.57317038
X -59.13773605 28.51898734 -10.09864383
X -21.65443279 20.50079583 5.93775710
X -32.01456301 26.43855342 -13.46485326
X -39.92899824 39.90339452 -14.25951375
X -35.39443036 48.71624730 -15.05417216
X -17.69721518 46.14469628 -4.16088544
X -17.69721518 13.46483694 -10.09863710
X -29.56886802 21.48303004 -22.58123519
X -23.16595542 49.51088604 -50.30558509
X -2.44569499 38.61761099 -26.74210768
X -35.97178063 29.31364447 -4.16087792
X -27.12317304 48.22512012 -23.37590161
X -39.92899824 29.01010781 -16.83106477
X 7.91443523 17.62569134 -33.47451903
X -3.95721762 44.85890781 -27.72435741
X -35.97178063 14.25949743 3.36620400
X -26.54582277 31.39407423 -10.09864511
X -33.52608564 30.10829071 -22.58123905
X -25.61165041 25.94742287 -29.31365792
X -17.69721518 41.98382923 -9.11640290
X -16.76304282 54.16288186 -33.47453535
X -21.65443279 29.80475406 -35.25142589
X -20.14291017 33.47450815 -6.73243567
X -0.93417236 51.59132748 -30.10832384
X -25.61165041 46.14469628 -4.16088544
X -14.31734783 39.90339452 -14.25951375
X -37.48330326 27.23320303 -24.35813918
X -40.86317060 38.61760348 -43.57315949
X -16.76304282 47.43046299 -29.31366750
X -20.14291017 41.18917132 -16.83107021
X -55.18051843 54.16288858 -18.42038495
X -33.52608564 35.25139869 -31.09056348
X -20.72026044 35.25141709 10.09861535
X -33.52608564 26.92967053 -27.72434941
X -46.33191084 37.82297148 6.73240383
X -10.36013022 38.61761693 -13.46485870
X -33.52608564 41.00157999 -14.25951424
X -15.25152019 3.36619727 -29.31364783
X -41.44052087 37.82295052 -40.20694878
X -25.61165041 15.05413695 -30.10830752
X -29.56886802 21.48303340 -15.05415999
X -35.39443036 48.71624395 -22.58124736
X -17.69721518 51.28780091 -20.19728509
X -4.89138997 52.87712187 6.73239711
X -8.84860759 54.16288858 -18.42038495
X -29.56886802 12.17906351 -0.00000544
X -19.20873781 57.52908170 -57.03800940
X -25.61165041 35.25139613 -36.84073726
X -46.33191084 31.09052828 -43.57315614
X -12.80582520 50.30554909 -31.09057021
X -36.90595299 33.17098316 6.73240591
X -13.73999756 32.37630508 -46.14471260
X -24.67747805 47.43046715 -20.00969089
X -67.05217128 28.51897726 -32.67986942
X -11.29430258 11.38440302 -13.46484653
X -29.56886802 58.32375227 -20.99194270
X -32.01456301 24.84924748 -6.73243183
X -18.27456545 20.99190878 -17.62571567
X -12.80582520 6.73240878 -26.74209344
X -46.33191084 59.60952650 -29.31367295
X -21.65443279 -2.87510449 -39.41227613
X -37.48330326 27.23320639 -16.83106398
X -35.97178063 26.13502171 -15.05416207
X -21.65443279 43.26960266 -19.21503456
X -21.65443279 49.01977566 -20.99193855
X -37.48330326 32.37630171 -53.67178780
X -32.01456301 26.43853582 -52.87713067
X -33.52608564 30.10829407 -15.05416384
X -50.28912846 38.12648301 -36.84073855
X -25.61165041 35.25138781 -55.44869050
X -21.65443279 62.48463099 10.09860318
X -23.16595542 49.51088939 -42.77850989
X -9.78277995 32.67984846 -18.42037536
X -15.25152019 71.29747290 -15.05418224
X 0.00000000 32.67983758 -42.77850237
X -21.65443279 56.73442873 -53.67179868
X -20.72026044 15.05413695 -30.10830752
X -32.01456301 41.49268958 -45.35006220
X -29.56886802 33.96561438 -45.35005884
X -9.78277995 32.67985182 -10.89330016
X -2.44569499 10.09861950 -25.94744047
X -9.78277995 57.03798971 13.46481598
X -30.50304038 52.87711100 -17.62572991
X -29.56886802 32.37631516 -23.56348700
X -28.05734540 16.83104509 -15.05415792
X 7.91443523 48.71625403 -0.00002176
X -21.65443279 39.10873403 -27.72435485
X -35.97178063 38.61761693 -13.46485870
X -10.36013022 38.61761020 -28.51900910
X -28.05734540 36.04605918 -17.62572238
X -7.33708496 10.09861535 -35.25141709
X -44.82038822 33.17097229 -17.62572110
X -12.80582520 -0.00001008 -22.58122560
X -41.44052087 48.71624730 -15.05417216
X -38.41747561 6.73241471 -13.46484446
X -37.48330326 27.23321055 -7.52708736
X -20.72026044 35.25140957 -6.73243647
X -13.73999756 51.59134844 16.83102877
X -51.22330082 10.89327919 -14.25950079
X -12.80582520 41.98383260 -1.58932769
X -22.58860515 25.94742287 -29.31365792
X -28.05734540 31.88519964 -5.75018801
X -25.61165041 15.05414783 -5.75018050
X -10.36013022 29.31362686 -43.57315533
X -25.61165041 52.87710427 -32.67988030
X -3.37986735 15.54525662 -38.61762988
X -6.40291260 4.65197487 -30.10830287
X -19.20873781 48.22510845 -49.51093004
X -38.41747561 46.14468876 -20.99193726
X -21.65443279 62.48461339 -29.31367423
X -35.97178063 40.20693038 -3.36622832
X -26.54582277 29.80475069 -42.77850109
X -38.41747561 74.66368026 -21.78660446
X -11.29430258 37.33183004 -33.47452783
X -29.56886802 38.12649053 -20.00968673
X -18.27456545 38.61760348 -43.57315949
X -29.56886802 59.91306909 -3.36623712
X -28.05734540 49.51089948 -20.19728429
X -13.73999756 20.50078496 -18.42036991
X -32.01456301 30.59941454 -21.78658479
X -17.69721518 17.62569471 -25.94744383
X -12.80582520 70.50280906 -36.04609854
X -8.84860759 47.43045884 -38.61764412
X -12.80582520 39.41226733 -22.58124320
X -3.95721762 36.53719052 -0.00001631
X -7.33708496 20.99190462 -26.92969228
X -37.48330326 47.43047723 2.57153471
X -34.46025800 5.44664128 -3.36621279
X -14.31734783 48.22512269 -17.62572782
X -24.67747805 44.85890861 -25.94745599
X -32.01456301 54.95754492 -14.25952047
X -3.37986735 44.06425900 -15.05417008
X -32.01456301 44.06425980 -13.27726866
X -0.93417236 18.91147486 -20.99192510
X -32.01456301 17.13457088 -26.74209808
X -38.41747561 28.51896974 -49.51092124
X -63.09495366 33.96561517 -43.57315742
X -55.18051843 51.59133340 -16.83107486
X -67.05217128 48.71624730 -15.05417216
X -21.65443279 9.60750576 -4.16086913
X -19.20873781 56.54684413 -36.04609230
X -12.80582520 35.25141373 2.57154015
X -47.26608320 38.12648223 -38.61763997
X -28.05734540 45.35003164 -26.92970316
X -52.73482345 19.70613535 -7.52708400
X -8.84860759 39.10873819 -18.42037823
X -27.12317304 44.06424812 -39.41229709
X -24.10012778 26.43856094 3.36619855
X -35.97178063 52.08245387 -23.56349580
X -54.24634608 39.41227069 -15.05416800
X -44.82038822 26.43854670 -28.51900366
X -12.80582520 26.92967804 -10.89329759
X 3.02304526 21.78656511 -13.46485118
X -32.01456301 63.27927308 -17.62573455
X -25.61165041 58.62727469 -40.20695807
X -4.89138997 26.92968140 -3.36622239
X -15.25152019 37.02830762 -14.25951246
X -30.50304038 20.19725245 -21.78658015
X -36.90595299 44.06425900 -15.05417008
X -25.61165041 63.77039019 -31.88523070
X -8.84860759 18.91147565 -19.21502368
X 1.51152263 44.06425148 -31.88522190
X -51.22330082 63.77039691 -16.83108029
X -28.05734540 7.52706175 -30.10830415
X -40.86317060 38.61762108 -4.16088208
X -4.89138997 46.14468620 -26.74211104
X -48.77760583 18.42034767 -29.31365455
X -8.84860759 42.28734334 -46.93937150
X -27.12317304 54.95754571 -12.48261905
X -37.48330326 45.84115962 -16.83107229
X -24.10012778 59.11840267 -30.10832720
X -17.69721518 20.19725245 -21.78658015
X -35.97178063 26.13502843 -0.00001167
X -33.52608564 28.51896638 -57.03799644
X 0.00000000 10.89327247 -29.31365119
X -15.25152019 60.40417610 -40.20695886
X -19.20873781 61.68997051 -3.36623792
X -8.84860759 12.17904590 -39.41228285
X -46.33191084 39.41226653 -24.35814461
X -0.93417236 23.07233261 -36.84073183
X -19.20873781 65.85082491 -26.74211984
X -19.20873781 -6.24130512 -17.62570351
X -18.27456545 45.35002571 -40.20695214
X -25.61165041 63.77039355 -24.35815550
X -40.86317060 20.99190957 -15.84881425
X -29.56886802 29.80476909 -1.58932226
X -37.48330326 21.48301916 -46.93936221
X -21.65443279 59.91306909 -3.36623712
X -19.20873781 33.17097309 -15.84881968
X -32.01456301 33.17097981 -0.79466929
X 1.51152263 29.01010860 -15.05416335
X -42.37469323 54.16288858 -18.42038495
X -23.16595542 23.56345644 -36.04607757
X -11.87165285 27.23320639 -16.83106398
X -7.33708496 40.20693038 -3.36622832
X -33.52608564 17.62568382 -50.30557085
X -48.77760583 42.77848477 -6.73243983
X -47.84343347 44.06426236 -7.52709488
X -25.61165041 44.55537274 -36.84074142
X -32.94873537 42.77848477 -6.73243983
X -19.20873781 29.01011612 1.77688846
X 5.46874024 38.61761099 -26.74210768
X -22.58860515 46.14469628 -4.16088544
X -23.16595542 42.77848893 2.57153678
X -33.52608564 43.57312766 -32.67987614
X -20.72026044 35.25139869 -31.09056348
X -21.65443279 50.00201659 -34.45678044
X -22.58860515 17.62569727 -20.19727005
X 1.51152263 29.01010187 -30.10831375
X -48.77760583 14.25948398 -26.74209680
X -38.41747561 20.19725917 -6.73242975
X -56.69204106 36.04606254 -10.09864719
X -46.33191084 28.51897982 -26.92969564
X -3.95721762 32.37633019 10.09861663
X -33.52608564 57.03798299 -1.58933441
X -33.52608564 67.93127227 6.73239039
X -18.27456545 14.25948319 -28.51899822
X 11.87165285 43.26961275 3.36619104
X -27.12317304 17.13458432 3.36620272
X -35.97178063 14.25948319 -28.51899822
X -35.97178063 52.08244042 -53.67179660
X -47.84343347 54.95754235 -20.00969425
X -47.26608320 54.16288858 -18.42038495
X -19.20873781 41.49268286 -60.40421259
X -35.97178063 20.99190621 -23.37588944
X -15.25152019 38.61760268 -45.35006091
X -35.03760827 42.47494219 -32.67987565
X 7.91443523 10.89327584 -21.78657599
X -24.10012778 34.76027566 -30.10831632
X -3.37986735 19.70611775 -46.93936141
X -17.69721518 39.41225982 -39.41229501
X -29.56886802 33.96562110 -30.29590844
X -27.12317304 19.70611775 -46.93936141
X -3.95721762 16.33991374 -32.67986398
X -19.20873781 15.54526335 -23.56347949
X -27.12317304 44.06426572 -0.00001968
X -41.44052087 41.98382844 -10.89330432
X -46.33191084 46.14469628 -4.16088544
X -29.56886802 38.12649725 -4.95553634
X -37.48330326 44.85891869 -3.36623039
X -48.77760583 3.36619391 -36.84072302
X -13.73999756 47.43048060 10.09860991
X -46.33191084 41.98382923 -9.11640290
X -31.08039065 37.02830427 -21.78658766
X -17.69721518 52.87710091 -40.20695550
X -10.36013022 62.97574394 -13.46486958
X -32.01456301 57.52909258 -32.67988238
X -29.56886802 62.48462347 -6.73244863
X -28.05734540 38.61759933 -52.87713611
X -43.88621586 20.99190541 -25.15279086
X -54.24634608 46.14469292 -11.68796065
X -51.22330082 70.50280906 -36.04609854
X -20.72026044 32.67984510 -25.94745055
X -24.10012778 44.06426572 -0.00001968
X -21.65443279 35.55493199 -25.94745184
X -32.01456301 76.74410746 -33.47454543
X -41.44052087 30.10829743 -7.52708864
X -56.69204106 29.31364031 -13.46485454
X -12.80582520 48.71623979 -31.88522397
X -23.16595542 30.29587867 -32.67987022
X -28.63469567 48.71624730 -15.05417216
X -33.52608564 16.03639133 -13.46484862
X -38.41747561 54.46641021 -39.41230173
X -16.76304282 69.21704571 -3.36624128
X -29.56886802 42.28735342 -24.35814590
X -34.46025800 47.43045963 -36.84074270
X -29.56886802 32.37630508 -46.14471260
X -23.16595542 12.67018397 -6.73242638
X -47.26608320 5.44663119 -25.94743840
X -27.12317304 18.11681853 -25.15278958
X -37.48330326 27.23320382 -22.58123776
X -46.33191084 39.41225982 -39.41229501
X -32.01456301 15.54526750 -14.25950287
X -20.72026044 10.89328255 -6.73242559
X -6.40291260 26.43854670 -28.51900366
X -11.29430258 61.68995707 -33.47453871
X -25.61165041 46.14470380 12.67016637
X -15.25152019 23.56346317 -20.99192717
X -19.20873781 54.95754907 -4.95554385
X -2.44569499 53.67176061 -28.51901582
X -30.50304038 17.62569134 -33.47451903
X -44.82038822 26.43855342 -13.46485326
X -35.97178063 31.88518461 -39.41229165
X -29.56886802 51.59133083 -22.58124864
X -12.80582520 32.67983758 -42.77850237
X -19.20873781 26.43854254 -37.82298028
X -42.37469323 47.43046635 -21.78659231
X -13.73999756 55.75220877 6.73239583
X -33.52608564 28.51898477 -15.84881760
X -60.64925868 39.90339116 -21.78658894
X -46.33191084 43.57313437 -17.62572575
X -25.61165041 28.51896974 -49.51092124
X -40.86317060 49.51088939 -42.77850989
X -33.52608564 40.39451499 -20.99193469
X 9.42595786 37.33184349 -3.36622704
X -10.36013022 34.45674988 -18.42037615
X -20.14291017 25.15276911 -27.72434862
X -16.76304282 36.53718300 -16.83106814
X -47.84343347 26.43855342 -13.46485326
X -31.08039065 38.61761357 -20.99193390
X -17.69721518 31.09053500 -28.51900573
X -32.01456301 8.81284271 -23.37588400
X -27.12317304 22.27768557 -20.19727212
X -21.65443279 8.01818815 -23.56347612
X -43.30886559 35.25139949 -29.31366207
X -30.50304038 15.05415039 -0.00000672
X -33.52608564 21.78656590 -11.68794976
X -28.05734540 10.09862959 -3.36621487
X -13.73999756 54.16288522 -25.94746015
X -24.10012778 65.85083163 -11.68796945
X -44.82038822 2.08043392 3.36620944
X -6.40291260 65.85082747 -20.99194606
X -50.28912846 40.69804828 -15.84882305
X -10.36013022 52.08245130 -29.31366958
X -42.37469323 40.69803325 -49.51092668
X -3.95721762 43.26960939 -4.16088416
X -12.80582520 9.30396317 -30.10830495
X -26.54582277 36.53716955 -46.93936893
X -33.52608564 63.77039434 -22.58125408
X -40.86317060 67.13659834 -36.84075150
X -29.56886802 40.69806252 16.03637917
X -9.78277995 37.82296059 -17.62572318
X -16.76304282 12.17904927 -31.88520766
X -26.54582277 18.91147486 -20.99192510
X -3.95721762 32.37632684 2.57154143
X -26.54582277 32.37631260 -29.31366078
X 3.95721762 43.26960603 -11.68795936
X -20.14291017 45.35003659 -15.84882512
X -8.84860759 29.80474733 -50.30557629
X -38.41747561 4.16086112 -8.32173153
X -30.50304038 50.30554988 -29.31366879
X -20.14291017 49.51090028 -18.42038287
X -50.28912846 39.10874491 -3.36622783
X -36.90595299 26.43854333 -36.04607886
X -30.50304038 43.57313774 -10.09865055
X -23.16595542 52.08245387 -23.56349580
X -40.86317060 14.25949071 -11.68794641
X -19.20873781 30.59941790 -14.25950959
X -24.10012778 35.74252332 -28.51900781
X -22.58860515 25.94742623 -21.78658271
X -8.84860759 16.33993135 6.73241343
X -31.08039065 42.77848556 -4.95553841
X -24.10012778 15.54525662 -38.61762988
X 11.87165285 16.33991039 -40.20693918
X -46.33191084 41.98383932 13.46482270
X -38.41747561 15.05414031 -22.58123232
X -29.56886802 25.64389452 -23.37589152
X -11.29430258 42.47493882 -40.20695086
X -25.61165041 63.77040443 -0.00002848
X -14.31734783 19.70613119 -16.83106062
X -3.37986735 26.43854333 -36.04607886
X -24.67747805 31.39406751 -25.15279550
X -46.33191084 35.25140364 -20.00968545
X -31.08039065 30.29588203 -25.15279501
X -19.20873781 22.27767549 -42.77849772
X -29.56886802 54.16288779 -20.19728636
X -9.78277995 20.19723821 -53.67178236
X -12.80582520 31.09053837 -20.99193054
X -9.78277995 39.41227405 -7.52709281
X -43.88621586 31.88518797 -31.88521646
X -32.01456301 59.11840188 -31.88522861
X -28.05734540 42.77848220 -12.48261361
X -15.25152019 14.25948655 -20.99192302
X 0.00000000 46.14469212 -13.46486206
X -32.01456301 23.86700655 6.73241007
X -17.69721518 50.30555997 -6.73244319
X -15.25152019 27.72432093 -36.84073390
X -39.92899824 34.76026815 -46.93936813
X -25.61165041 78.82455482 -0.00003520
X -39.92899824 15.54526335 -23.56347949
X -43.88621586 27.72433101 -14.25950830
X -26.54582277 38.12649646 -6.73243776
X -36.90595299 12.97371647 -3.36621615
X -42.37469323 42.28735007 -31.88522110
X -28.05734540 34.45674908 -20.19727757
X -34.46025800 58.32375643 -11.68796608
X -36.90595299 41.49270382 -13.46485998
X -33.52608564 32.67984510 -25.94745055
X -35.97178063 12.67017052 -36.84072718
X -6.40291260 11.38440381 -11.68794512
X -28.05734540 46.93934174 -24.35814798
X -42.37469323 1.28577343 -10.09863166
X -38.41747561 66.34194457 -35.25144221
X -39.92899824 57.52909594 -25.15280718
X -19.20873781 72.58324298 -32.67988910
X -55.18051843 23.07233261 -36.84073183
X -10.36013022 14.25948991 -13.46484783
X -36.90595299 12.97370976 -18.42036656
X -42.37469323 50.00202411 -17.62572862
X -46.33191084 28.51897726 -32.67986942
X -19.20873781 33.17097229 -17.62572110
X -11.87165285 36.53718380 -15.05416672
X -13.73999756 51.59134507 9.30395358
X -24.67747805 16.33991039 -40.20693918
X -54.24634608 52.87711515 -8.32175328
X -44.82038822 29.01011276 -5.75018674
X -16.76304282 33.96561101 -52.87713404
X -37.48330326 16.33992047 -17.62571358
X -28.05734540 11.68793968 -0.79465970
X -3.95721762 12.17905679 -15.05415584
X -12.80582520 21.78656511 -13.46485118
X -14.31734783 50.79668123 -11.68796272
X -39.92899824 17.13457423 -19.21502288
X -12.80582520 4.16085439 -23.37588193
X -60.64925868 23.86699231 -25.15279215
X -7.91443523 35.25139613 -36.84073726
X -37.48330326 29.80475406 -35.25142589
X -27.12317304 35.74252747 -19.21503119
X 1.51152263 54.95754155 -21.78659567
X -10.36013022 62.97573722 -28.51901998
X -23.16595542 20.99190462 -26.92969228
X -15.25152019 67.13659834 -36.84075150
X -7.91443523 21.78655166 -43.57315198
X -59.13773605 35.25140621 -14.25951167
X -19.20873781 31.58166971 -3.36622447
X -14.31734783 46.63581339 -18.42038159
X -32.01456301 34.76027566 -30.10831632
X -44.82038822 46.63582011 -3.36623119
X -27.12317304 59.11840604 -22.58125200
X -8.84860759 28.21544890 -26.74210303
X -24.10012778 42.47494554 -25.15280046
X 1.51152263 44.06425900 -15.05417008
X -42.37469323 23.07232846 -46.14470845
X 5.46874024 36.04604910 -40.20694798
X -25.61165041 36.84071215 -20.99193310
X -3.95721762 51.59133340 -16.83107486
X -15.25152019 45.35003916 -10.09865135
X -28.05734540 60.40417610 -40.20695886
X -43.88621586 18.42034431 -36.84072975
X -32.01456301 29.01011197 -7.52708816
X -31.08039065 25.15275902 -50.30557420
X -34.46025800 23.07233261 -36.84073183
X -25.61165041 39.41224893 -63.77042203
X -35.97178063 14.25948991 -13.46484783
X -21.65443279 27.23320303 -24.35813918
X -21.65443279 36.53718795 -5.75019010
X 3.95721762 47.43047308 -6.73244191
X -27.12317304 39.90339531 -12.48261232
X -24.10012778 42.47494219 -32.67987565
X -32.94873537 25.15276911 -27.72434862
X -43.88621586 49.51089355 -33.47453327
X -44.82038822 11.38439709 -26.74209552
X -33.52608564 61.19884668 -4.16089217
X -46.33191084 35.25140205 -23.56348829
X -43.88621586 25.15277326 -18.42037200
X -39.92899824 52.38598717 -18.42038416
X -39.92899824 45.65357166 -6.73244111
X -32.94873537 45.35002907 -32.67987694
X -3.37986735 33.17096892 -25.15279631
X -60.64925868 37.33183004 -33.47452783
X -19.20873781 24.84924412 -14.25950702
X 1.51152263 30.59942126 -6.73243439
X -39.92899824 15.54526078 -29.31365327
X -15.25152019 64.56505404 -10.89331440
X -4.89138997 52.87710842 -23.37590368
X -46.33191084 46.14468620 -26.74211104
X -33.52608564 28.51897982 -26.92969564
X -42.37469323 28.21545563 -11.68795264
X -35.03760827 42.47495226 -10.09865006
X -11.29430258 28.02785343 -33.47452367
X -25.61165041 43.57314190 -0.79467394
X -46.33191084 15.05413695 -30.10830752
X -32.94873537 31.88520222 -0.00001424
X -35.97178063 11.68793631 -8.32173489
X -20.72026044 32.67983758 -42.77850237
X -63.09495366 43.26959931 -26.74210976
X -16.18569255 19.70612782 -24.35813582
X -28.05734540 34.45674652 -25.94745135
X -15.25152019 25.15276911 -27.72434862
X 1.51152263 26.43853998 -43.57315406
X -37.48330326 38.12650061 2.57153886
X -9.78277995 50.30555404 -20.00969217
X -32.01456301 23.86698895 -32.67986735
X -25.61165041 51.28779418 -35.25143549
X -50.28912846 25.64389709 -17.62571774
X -56.69204106 41.18916538 -30.10831919
X -33.52608564 21.78656175 -20.99192638
X -29.56886802 1.28576335 -32.67985726
X -15.25152019 71.29747626 -7.52710704
X -12.80582520 52.87711179 -15.84882849
X -29.56886802 62.48461754 -20.00969761
X -28.05734540 30.29589291 -0.79466800
X -38.41747561 37.82295387 -32.67987358
X -44.82038822 8.81285279 -0.79465840
X 0.00000000 52.87710091 -40.20695550
X -67.05217128 28.51898398 -17.62571903
X 7.91443523 24.35812365 -7.52708608
X -39.35164797 40.69804412 -25.15279966
X -44.82038822 12.97371647 -3.36621615
X -11.29430258 19.70612782 -24.35813582
X -19.20873781 64.26150730 -46.14472684
X 3.95721762 25.64389788 -15.84881632
X -27.12317304 45.65355821 -36.84074191
X -12.80582520 28.51897646 -34.45677084
X -15.25152019 47.92158009 -43.57316365
X -4.89138997 39.41225982 -39.41229501
X -19.20873781 46.63580924 -27.72435821
X -47.84343347 33.17097565 -10.09864590
X -46.33191084 31.09054588 -4.16087873
X -48.77760583 40.20692287 -20.19728013
X -31.08039065 16.83103757 -31.88520973
X -46.33191084 21.78655918 -26.74210016
X -35.97178063 30.29588876 -10.09864462
X -25.61165041 40.39451499 -20.99193469
X -21.65443279 18.91147901 -11.68794848
X -40.86317060 38.61761436 -19.21503248
X -28.05734540 18.42034767 -29.31365455
X -46.33191084 36.84070542 -36.04608351
X -26.54582277 58.32374970 -26.74211648
X -47.26608320 47.43045963 -36.84074270
X -35.97178063 56.24331163 -39.41230254
X -29.56886802 16.33992047 -17.62571358
X -3.95721762 29.80476493 -10.89329887
X -35.97178063 71.29747963 -0.00003184
X -34.46025800 21.48303004 -22.58123519
X -34.46025800 9.60750576 -4.16086913
X -11.29430258 48.22513357 6.73239918
X -19.20873781 42.47494219 -32.67987565
X -44.82038822 72.58323962 -40.20696430
X -15.25152019 14.25948991 -13.46484783
X -34.46025800 69.21704234 -10.89331647
X -30.50304038 33.66209355 -22.58124063
X -11.29430258 42.47494219 -32.67987565
X -7.33708496 53.67177148 -4.16088880
X -24.10012778 29.01010445 -24.35813997
X -13.73999756 33.96561517 -43.57315742
X -11.29430258 33.17097309 -15.84881968
X -37.48330326 51.59134172 1.77687838
X -3.37986735 34.76027902 -22.58124112
X -21.65443279 27.23320045 -30.10831296
X -50.28912846 51.59133756 -7.52709823
X 1.51152263 44.06425820 -16.83107149
X -4.89138997 63.77039098 -30.10832928
X -35.97178063 64.56505404 -10.89331440
X -43.30886559 10.89328255 -6.73242559
X -20.72026044 21.78656927 -4.16087457
X -20.72026044 46.14469292 -11.68796065
X -7.33708496 18.42035103 -21.78657935
X -25.61165041 50.30555404 -20.00969217
X 15.82887046 35.25139949 -29.31366207
X -16.76304282 54.16288106 -35.25143677
X -30.50304038 35.25141036 -4.95553505
X -46.33191084 52.87710427 -32.67988030
X -4.89138997 44.55537946 -21.78659103
X -29.56886802 55.75220204 -8.32175457
X -3.37986735 29.01010781 -16.83106477
X -2.44569499 45.35004331 -0.79467473
X -3.95721762 12.17905006 -30.10830624
X -50.28912846 16.33991711 -25.15278878
X -7.33708496 18.42035776 -6.73242895
X -21.65443279 60.89530666 -24.35815421
X -12.80582520 37.82296811 -0.79467136
X -4.89138997 32.67984094 -35.25142717
X -10.36013022 45.35003579 -17.62572654
X -17.69721518 30.10829407 -15.05416384
X -7.33708496 47.92158346 -36.04608845
X -23.16595542 71.29747963 -0.00003184
X -33.52608564 31.09052828 -43.57315614
X -16.76304282 23.07234350 -12.48260481
X -35.97178063 60.40417947 -32.67988366
X -32.01456301 0.49112047 -6.73242095
X -32.01456301 22.27769389 -1.58931889
X -22.23178306 33.17096557 -32.67987150
X -3.37986735 19.70613119 -16.83106062
X 3.95721762 18.91147565 -19.21502368
X -33.52608564 50.30554988 -29.31366879
X -44.82038822 54.95753483 -36.84074607
X -31.08039065 29.31363023 -36.04608014
X -26.54582277 18.91146477 -43.57315069
X -6.40291260 22.27768717 -16.64346930
X -29.56886802 47.43046971 -14.25951711
X -38.41747561 25.94742959 -14.25950751
X -21.65443279 34.94787371 -17.62572189
X -6.40291260 22.27770061 13.46483150
X -59.13773605 24.35812702 -0.00001088
X -21.65443279 38.12648638 -29.31366335
X -21.65443279 35.55492862 -33.47452704
X -35.03760827 41.49270125 -19.21503377
X -42.37469323 39.10873482 -25.94745343
X 1.51152263 61.68995707 -33.47453871
X -24.10012778 39.90338779 -29.31366415
X -10.36013022 67.13660170 -29.31367630
X -32.94873537 31.88519549 -15.05416463
X -24.10012778 30.59940366 -46.14471180
X -47.26608320 54.16288522 -25.94746015
X 3.02304526 25.94741951 -36.84073311
X -30.50304038 39.41226317 -31.88521981
X -11.29430258 37.33185101 13.46482478
X -43.30886559 39.41226317 -31.88521981
X -60.64925868 30.59940782 -36.84073519
X -13.73999756 31.39407167 -15.84881889
X -35.03760827 37.33183004 -33.47452783
X -46.33191084 43.57312766 -32.67987614
X -19.20873781 0.49111375 -21.78657135
X -7.33708496 27.72432013 -38.61763532
X -21.65443279 44.85891117 -20.19728221
X -7.33708496 33.47449807 -29.31366127
X -26.54582277 27.23320045 -30.10831296
X -44.82038822 8.81285616 6.73241679
X -55.18051843 18.91147229 -26.74209887
X -48.77760583 36.04604910 -40.20694798
X -25.61165041 24.35810862 -41.18918971
X -38.41747561 39.41225565 -48.71627164
X -32.94873537 41.18917883 -0.00001840
X -22.58860515 31.09053165 -36.04608093
X -20.72026044 36.84071215 -20.99193310
X -31.08039065 10.09860862 -50.30556749
X -52.73482345 50.79668123 -11.68796272
X -11.29430258 17.13458432 3.36620272
X -21.65443279 3.85732446 -20.99191837
X -11.29430258 46.63581003 -25.94745679
X -19.20873781 39.90340203 2.57153807
X -14.31734783 44.06425228 -30.10832048
X -25.61165041 48.71624730 -15.05417216
X -31.08039065 20.99189117 -57.03799308
X -25.61165041 31.09053580 -26.74210431
X -16.18569255 30.59941118 -29.31365999
X -21.65443279 12.17904590 -39.41228285
X -28.05734540 71.29747963 -0.00003184
X -35.03760827 34.76028238 -15.05416593
X -54.24634608 31.09053165 -36.04608093
X -43.88621586 34.45675660 -3.36622575
X -26.54582277 50.00202411 -17.62572862
X -16.76304282 27.23320303 -24.35813918
X -28.05734540 38.61760348 -43.57315949
X -7.91443523 41.98382508 -18.42037952
X -44.82038822 57.52909930 -17.62573198
X -7.91443523 24.35812702 -0.00001088
X -11.29430258 37.33184429 -1.58932562
X -32.94873537 38.61762444 3.36619312
X -56.69204106 31.88519212 -22.58123984
X -26.54582277 12.17904255 -46.93935805
X -28.05734540 10.09862286 -18.42036527
X -55.18051843 33.96561517 -43.57315742
X -35.97178063 49.51088604 -50.30558509
X -29.56886802 16.33992126 -15.84881216
X -24.67747805 27.23320718 -15.05416256
X -30.50304038 57.03796875 -33.47453663
X -20.72026044 41.98381420 -42.77850652
X -24.67747805 27.23320045 -30.10831296
X -43.30886559 41.98383181 -3.36622911
X -19.20873781 26.43855342 -13.46485326
X -37.48330326 62.48463099 10.09860318
X -26.54582277 18.91147822 -13.46484990
X -48.77760583 34.45675739 -1.58932433
X -33.52608564 47.73400221 -10.89330688
X -46.33191084 21.78656590 -11.68794976
X -41.44052087 32.67985182 -10.89330016
X -24.10012778 17.13458432 3.36620272
X -14.31734783 30.59942126 -6.73243439
X -27.12317304 19.70612862 -22.58123440
X -35.03760827 46.63582011 -3.36623119
X -38.41747561 21.78656590 -11.68794976
X -43.30886559 59.60952986 -21.78659775
X -21.65443279 43.26958763 -52.87713819
X -25.61165041 61.19883244 -36.04609438
X -48.77760583 42.77846717 -46.14471725
X -34.46025800 49.01976556 -43.57316414
X -21.65443279 39.10873740 -20.19727964
X -13.73999756 51.59133756 -7.52709823
X -11.87165285 40.69803740 -40.20695005
X -29.56886802 29.80476493 -10.89329887
X -38.41747561 22.76880763 -23.37589024
X -9.78277995 20.19724494 -38.61763196
X -27.12317304 18.11681181 -40.20693998
X 1.51152263 41.49269709 -28.51901038
X -22.58860515 48.71625403 -0.00002176
X -6.40291260 72.58323962 -40.20696430
X -32.01456301 65.85082826 -19.21504464
X 0.00000000 39.41225982 -39.41229501
X -20.72026044 17.62569471 -25.94744383
X -15.25152019 60.40419707 6.73239376
X -56.69204106 42.77847132 -36.84074063
X -4.89138997 20.19724909 -29.31365534
X -27.12317304 26.43854670 -28.51900366
X -28.05734540 44.36779071 -13.46486127
X -13.73999756 25.64388284 -49.51091996
X -4.89138997 41.98381756 -35.25143133
X -43.88621586 56.24331578 -30.10832591
X -2.44569499 52.08245130 -29.31366958
X -30.50304038 57.03798220 -3.36623583
X -10.36013022 23.56346060 -26.74210096
X 11.87165285 29.80475821 -25.94744927
X -38.41747561 35.25139949 -29.31366207
X -42.37469323 47.43045884 -38.61764412
X -31.08039065 29.31363358 -28.51900494
X -34.46025800 18.91147486 -20.99192510
X -52.73482345 37.33183261 -27.72435405
X 3.95721762 16.33991711 -25.15278878
X -47.84343347 34.76027566 -30.10831632
X -38.41747561 55.44866202 -28.51901662
X -35.97178063 16.83104094 -24.35813454
X -38.41747561 13.46484446 6.73241471
X -39.92899824 31.58166971 -3.36622447
X -18.27456545 42.77848477 -6.73243983
X -9.78277995 48.71625403 -0.00002176
X -32.01456301 33.17095805 -49.51092332
X -8.84860759 50.00201738 -32.67987902
X -63.09495366 27.23319630 -39.41228958
X -30.50304038 35.25140364 -20.00968545
X -34.46025800 38.12648638 -29.31366335
X -16.76304282 58.32374970 -26.74211648
X -35.97178063 42.77848220 -12.48261361
X -6.40291260 33.17097229 -17.62572110
X -38.41747561 24.35811357 -30.10831167
X -33.52608564 48.71625403 -0.00002176
X 7.91443523 39.41225645 -46.93937022
X -60.64925868 46.63581003 -25.94745679
X -42.37469323 40.69805836 6.73240255
X 3.95721762 54.16289195 -10.89330975
X -54.24634608 35.25140621 -14.25951167
X -17.69721518 10.89328255 -6.73242559
X -39.92899824 22.27767549 -42.77849772
X -21.65443279 20.50079247 -1.58931810
X -18.27456545 31.88518797 -31.88521646
X -25.61165041 52.87710684 -26.92970652
X -42.37469323 16.33992047 -17.62571358
X -30.50304038 55.44866538 -20.99194141
X -16.76304282 44.85890861 -25.94745599
X -44.82038822 15.54527502 2.57154895
X -34.46025800 28.21546235 3.36619776
X -32.01456301 50.79667708 -20.99193934
X -47.26608320 25.64390797 6.73240928
X -31.08039065 36.04606334 -8.32174577
X -25.61165041 57.03798971 13.46481598
X -38.41747561 21.78655918 -26.74210016
X -15.25152019 40.20691694 -33.47452911
X -28.99151776 37.33183004 -33.47452783
X -17.69721518 26.92967804 -10.89329759
X -39.92899824 37.33184429 -1.58932562
X -33.52608564 6.73241471 -13.46484446
X -25.61165041 59.60953322 -14.25952254
X -17.69721518 24.35812702 -0.00001088
X -42.37469323 58.32374891 -28.51901790
X 1.51152263 48.22512604 -10.09865262
X -33.52608564 57.03797547 -18.42038624
X -54.24634608 24.35811614 -24.35813789
X -7.33708496 42.77847132 -36.84074063
X -25.61165041 52.87710012 -41.98385692
X -21.65443279 31.39407087 -17.62572031
X -36.90595299 44.06425148 -31.88522190
X -52.73482345 41.49269037 -43.57316078
X -25.61165041 48.71622892 -56.24335099
X -16.76304282 44.85891533 -10.89330560
X -2.44569499 16.83105181 -0.00000751
X -7.91443523 28.51898398 -17.62571903
X -10.36013022 25.15276990 -25.94744719
X -25.61165041 51.89485581 -36.04609023
X -35.03760827 54.95754571 -12.48261905
X -33.52608564 32.67985518 -3.36622496
X -32.01456301 -2.08044400 -25.94743503
X -38.41747561 4.16086449 -0.79465633
X -56.69204106 18.42034431 -36.84072975
X -28.05734540 27.72434189 10.09861870
X -19.20873781 19.70612447 -31.88521101
X -12.80582520 6.73242223 3.36620735
X -39.35164797 54.16288522 -25.94746015
X -44.82038822 26.43856094 3.36619855
X -47.84343347 33.17096220 -40.20694670
X -32.94873537 56.24332922 -0.00002512
X -50.28912846 54.16289531 -3.36623455
X -52.73482345 44.06425900 -15.05417008
X -35.97178063 36.04605997 -15.84882097
X -11.29430258 45.65356493 -21.78659152
X -33.52608564 31.09054252 -11.68795392
X -11.29430258 15.54525742 -36.84072846
X -43.88621586 23.56345308 -43.57315277
X -35.03760827 50.79667451 -26.74211311
X -17.69721518 24.35810190 -56.24334011
X -38.41747561 13.46483022 -25.15278750
X -20.72026044 35.25141036 -4.95553505
X -19.20873781 26.43855085 -19.21502704
X -33.52608564 50.30555997 -6.73244319
X -6.40291260 34.76027486 -31.88521774
X -35.97178063 42.77847883 -20.00968881
X -48.77760583 20.99189869 -40.20694126
X -25.61165041 6.73241471 -13.46484446
X -12.80582520 61.19883244 -36.04609438
X -21.65443279 20.50077823 -33.47452032
X -42.37469323 60.89531002 -16.83107901
X -36.90595299 8.81283519 -40.20693582
X -30.50304038 15.05414704 -7.52708192
X -28.63469567 28.51897726 -32.67986942
X -23.16595542 22.58121887 -15.05416048
X -14.31734783 26.43855422 -11.68795184
X -44.82038822 48.22512269 -17.62572782
X -42.37469323 29.80476236 -16.64347265
X -32.01456301 61.68997051 -3.36623792
X -21.65443279 47.43046715 -20.00969089
X -7.33708496 47.92158682 -28.51901325
X -51.22330082 52.87710427 -32.67988030
X -15.25152019 47.92159354 -13.46486286
X -15.25152019 60.40418619 -17.62573327
X -33.52608564 37.82296811 -0.79467136
X -11.29430258 22.27767965 -33.47452111
X -56.69204106 29.31362686 -43.57315533
X -35.97178063 45.35003579 -17.62572654
X -13.73999756 29.80476493 -10.89329887
X -3.37986735 46.63581339 -18.42038159
X -7.33708496 27.72432686 -23.56348492
X -15.25152019 27.72432765 -21.78658351
X -39.92899824 12.97370639 -25.94744175
X -35.97178063 53.67175388 -43.57316622
X -44.82038822 61.68996714 -10.89331311
X -24.67747805 36.53716955 -46.93936893
X 0.00000000 13.46483101 -23.37588608
X -27.12317304 34.76028159 -16.83106733
X -42.37469323 5.44663792 -10.89328799
X -56.69204106 38.61762108 -4.16088208
X -9.78277995 44.55537946 -21.78659103
X -39.92899824 45.65356493 -21.78659152
X -38.41747561 46.14469292 -11.68796065
X -28.05734540 10.09862622 -10.89329007
X -12.80582520 26.92968892 13.46482943
X -37.48330326 50.00201738 -32.67987902
X -38.41747561 24.35813454 16.83104094
X -10.36013022 36.04605918 -17.62572238
X -32.94873537 52.08245803 -14.25951919
X -15.25152019 53.67177484 3.36618639
X -44.82038822 65.85082747 -20.99194606
X -34.46025800 33.96562190 -28.51900702
X 5.46874024 45.35003579 -17.62572654
X -35.03760827 34.76027566 -30.10831632
X -35.97178063 49.51089355 -33.47453327
X -25.61165041 25.94741951 -36.84073311
X -28.05734540 25.15277246 -20.19727342
X -35.97178063 42.77847805 -21.78659022
X -6.40291260 18.11683277 6.73241263
X -36.90595299 33.17096892 -25.15279631
X -27.12317304 15.54525662 -38.61762988
X -42.37469323 47.43045548 -46.14471932
X -19.20873781 37.33184014 -10.89330224
X -11.29430258 46.63580666 -33.47453199
X -42.37469323 47.43047308 -6.73244191
X -47.84343347 50.79667787 -19.21503792
X -24.67747805 43.26960187 -20.99193598
X -38.41747561 24.35810941 -39.41228829
X -55.18051843 47.43046299 -29.31366750
X -7.33708496 34.45673900 -42.77850317
X -8.84860759 33.96562190 -28.51900702
X 3.95721762 5.44662783 -33.47451359
X -13.73999756 21.48302589 -31.88521181
X -23.16595542 16.83104094 -24.35813454
X -16.76304282 40.69804333 -26.92970108
X -27.12317304 31.58165627 -33.47452527
X -16.76304282 29.80476236 -16.64347265
X -39.35164797 43.26959931 -26.74210976
X -32.01456301 22.27768717 -16.64346930
X -54.24634608 32.67985182 -10.89330016
X -28.05734540 33.47449470 -36.84073647
X 3.02304526 44.55537274 -36.84074142
X -23.16595542 7.52706175 -30.10830415
X -52.73482345 57.52909594 -25.15280718
X -29.56886802 31.39407839 -0.79466850
X -19.20873781 0.49111710 -14.25949615
X -9.78277995 39.41227742 -0.00001760
X 11.87165285 27.23319630 -39.41228958
X -4.89138997 13.46482686 -32.67986271
X -17.69721518 44.55536859 -46.14471804
X -34.46025800 40.69805501 -0.79467265
X -26.54582277 39.10873482 -25.94745343
X -11.29430258 53.36823146 -24.35815085
X -9.78277995 50.30556076 -4.95554178
X -28.05734540 34.45674236 -35.25142797
X -12.80582520 17.62570478 -3.36621824
X -11.29430258 29.01011532 -0.00001296
X -42.37469323 29.80476078 -20.19727549
X -29.56886802 33.96560766 -60.40420923
X -22.58860515 41.98382171 -25.94745471
X -33.52608564 40.39450490 -43.57316029
X -30.50304038 26.92967468 -18.42037279
X -8.84860759 49.01977229 -28.51901374
X -25.61165041 28.51899486 6.73240799
X -19.20873781 68.42237514 -39.41230797
X -24.10012778 22.27767886 -35.25142253
X -28.05734540 31.88518877 -30.10831504
X -20.14291017 42.77848556 -4.95553841
X -8.84860759 39.10873146 -33.47452862
X -60.64925868 50.79668459 -4.16088753
X -10.36013022 27.72432765 -21.78658351
X -28.05734540 26.13501498 -30.10831247
X -34.46025800 54.16288522 -25.94746015
X -32.01456301 48.22513357 6.73239918
X -14.31734783 61.68996042 -25.94746351
X -3.95721762 23.07234270 -14.25950623
X -14.31734783 26.43854670 -28.51900366
X -19.20873781 59.11840524 -24.35815341
X -24.67747805 47.43046635 -21.78659231
X 5.46874024 27.72432093 -36.84073390
X -22.23178306 50.79668795 3.36618767
X -13.73999756 18.91146062 -52.87712731
X -20.72026044 41.98382171 -25.94745471
X -47.26608320 51.59133340 -16.83107486
X 5.46874024 34.45674652 -25.94745135
X -34.46025800 14.75060781 -25.94744255
X -24.10012778 46.63582011 -3.36623119
X 7.91443523 39.41226653 -24.35814461
X -25.61165041 46.14467788 -45.35006427
X -47.26608320 16.33992384 -10.09863839
X -2.44569499 14.25949407 -4.16087120
X -15.25152019 36.04604158 -57.03799980
X -35.97178063 5.93775838 -17.62570894
X -39.92899824 46.63580924 -27.72435821
X -26.54582277 20.50078496 -18.42036991
X -0.93417236 44.85891869 -3.36623039
X -47.84343347 22.27767886 -35.25142253
X -31.08039065 60.40418699 -15.84883185
X -16.76304282 23.07232510 -53.67178364
X -28.05734540 18.42035439 -14.25950415
X -54.24634608 25.94743295 -6.73243232
X -40.86317060 56.24331835 -24.35815213
X -35.97178063 23.56345308 -43.57315277
X -54.24634608 35.25140285 -21.78658687
X -20.72026044 13.46483359 -17.62571230
X -4.89138997 28.51897982 -26.92969564
X -30.50304038 37.82296475 -8.32174657
X -21.65443279 40.69804333 -26.92970108
X -41.44052087 32.67984174 -33.47452576
X 5.46874024 25.15275902 -50.30557420
X -27.12317304 44.06425900 -15.05417008
X -47.84343347 35.74252332 -28.51900781
X -36.90595299 50.79667035 -36.04608974
X -47.26608320 16.33991374 -32.67986398
X -2.44569499 27.72432093 -36.84073390
X -33.52608564 52.87711100 -17.62572991
X -32.01456301 12.97370639 -25.94744175
X -37.48330326 18.91146062 -52.87712731
X -15.82887046 41.98382508 -18.42037952
X -24.10012778 50.79667451 -26.74211311
X -44.82038822 44.06425484 -24.35814669
X -26.54582277 40.69803740 -40.20695005
X -20.14291017 34.45674236 -35.25142797
X -24.67747805 33.96563277 -4.16088001
X -11.29430258 30.59942542 2.57154223
X -35.97178063 23.56347068 -4.16087536
X -25.61165041 24.35812030 -15.05416128
X -17.69721518 36.84072302 3.36619391
X -32.01456301 68.42237177 -46.93938317
X -20.72026044 43.57312766 -32.67987614
X -28.05734540 36.04606669 -0.79467057
X -42.37469323 18.91147822 -13.46484990
X -3.37986735 30.59941454 -21.78658479
X -11.29430258 45.65356158 -29.31366672
X -32.01456301 11.38439294 -36.04607214
X -43.88621586 29.31364031 -13.46485454
X -28.05734540 33.47450479 -14.25951088
X -24.10012778 23.86698559 -40.20694254
X -25.61165041 51.28780091 -20.19728509
X 5.46874024 52.08245803 -14.25951919
X -28.63469567 37.82295052 -40.20694878
X -23.16595542 58.81486265 -50.30558925
X -36.90595299 39.90340203 2.57153807
X -12.80582520 41.98381084 -50.30558173
X -43.88621586 20.99189869 -40.20694126
X -16.18569255 50.79667787 -19.21503792
X -15.25152019 36.04605997 -15.84882097
X -10.36013022 31.88519885 -7.52708944
X -8.84860759 28.21545227 -19.21502784
X -37.48330326 24.66165952 3.36619935
X -25.61165041 41.98382428 -20.19728093
X -47.26608320 65.05616777 -32.67988574
X 0.00000000 20.19726669 10.09862207
X 15.82887046 48.71624730 -15.05417216
X -7.91443523 46.14469212 -13.46486206
X -28.05734540 37.02830090 -29.31366285
X -33.52608564 37.82294300 -57.03800060
X -13.73999756 43.26960524 -13.46486078
X -28.05734540 53.67176733 -13.46486542
X -38.41747561 17.62569806 -18.42036863
X -47.84343347 19.70611775 -46.93936141
X -33.52608564 61.19885004 3.36618303
X -34.46025800 33.96561517 -43.57315742
X -3.95721762 36.53718044 -22.58124191
X -43.30886559 10.89326911 -36.84072639
X -23.16595542 57.83262845 -21.78659695
X -0.93417236 47.43048060 10.09860991
X -2.44569499 40.20691614 -35.25143054
X -39.92899824 37.33182589 -42.77850445
X -30.50304038 44.55537611 -29.31366622
X -7.33708496 40.20692029 -25.94745392
X -27.12317304 12.97370304 -33.47451695
X -10.36013022 27.72433101 -14.25950830
X -8.84860759 50.00202074 -25.15280382
X -16.76304282 31.39406751 -25.15279550
X -20.14291017 14.25948991 -13.46484783
X -0.93417236 47.43047050 -12.48261569
X -21.65443279 25.64389036 -32.67986813
X -12.80582520 63.77038347 -46.93938109
X -19.20873781 30.59940366 -46.14471180
X -32.01456301 30.59941374 -23.56348621
X -19.20873781 44.06425484 -24.35814669
X -23.16595542 60.40417947 -32.67988366
X -35.97178063 34.45674236 -35.25142797
X -30.50304038 39.41226397 -30.10831839
X -32.94873537 38.61760348 -43.57315949
X -31.08039065 47.92159354 -13.46486286
X -17.69721518 24.35811949 -16.83106269
X -21.65443279 40.69803661 -41.98385148
X -4.89138997 32.67984766 -20.19727677
X 9.42595786 33.17096892 -25.15279631
X -28.63469567 39.41227405 -7.52709281
X -28.05734540 31.88520973 16.83103757
X -11.87165285 16.33992384 -10.09863839
X -35.97178063 58.81487610 -20.19728845
X -37.48330326 27.23319967 -31.88521437
X -28.05734540 42.77847725 -23.56349164
X -33.52608564 21.78656255 -19.21502496
X -28.05734540 26.13502507 -7.52708687
X -43.88621586 22.58122223 -7.52708529
X -34.46025800 32.37632268 -6.73243518
X -55.18051843 18.91147565 -19.21502368
X -32.01456301 34.76028574 -7.52709072
X -25.61165041 2.57154351 -27.72433852
X -37.48330326 33.96561517 -43.57315742
X -20.14291017 47.92159018 -20.99193806
X -39.92899824 26.43854749 -26.74210224
X -6.40291260 44.06424812 -39.41229709
X -24.67747805 23.07234270 -14.25950623
X -34.46025800 65.05616442 -40.20696094
X -32.01456301 50.79668459 -4.16088753
X -25.61165041 22.76882108 6.73241056
X -39.92899824 22.27768557 -20.19727212
X -35.97178063 25.15275902 -50.30557420
X -16.76304282 33.96561774 -37.82298363
X -7.33708496 29.31363023 -36.04608014
X -23.16595542 31.88520301 1.77688718
X 15.82887046 28.51898734 -10.09864383
X -3.95721762 18.91147565 -19.21502368
X -23.16595542 30.29589627 6.73240719
X -25.61165041 46.14469965 3.36618975
X -50.28912846 29.80476829 -3.36622368
X 9.42595786 39.90339452 -14.25951375
X -29.56886802 8.01818142 -38.61762653
X -35.97178063 27.72432428 -29.31365870
X -27.12317304 23.86699566 -17.62571695
X -47.26608320 54.16288186 -33.47453535
X -32.01456301 33.17095469 -57.03799851
X -31.08039065 38.61761772 -11.68795728
X -12.80582520 28.51897390 -40.20694463
X -32.01456301 26.43854670 -28.51900366
X -10.36013022 31.88519470 -16.83106606
X -29.56886802 45.84115290 -31.88522269
X -18.27456545 27.72432093 -36.84073390
X -15.25152019 26.13501498 -30.10831247
X -12.80582520 52.87710091 -40.20695550
X -43.88621586 45.35003995 -8.32174993
X -34.46025800 12.17904927 -31.88520766
X -19.20873781 46.63581339 -18.42038159
X -35.97178063 51.10019949 -40.20695470
X -60.64925868 46.63582011 -3.36623119
X -4.89138997 59.60952650 -29.31367295
X -37.48330326 40.69805501 -0.79467265
X -20.14291017 41.18917547 -7.52709359
X -6.40291260 68.42237177 -46.93938317
X -35.97178063 60.40418283 -25.15280846
X -16.18569255 42.47494219 -32.67987565
X -40.86317060 10.09862622 -10.89329007
X -8.84860759 16.33992047 -17.62571358
X -8.84860759 32.37632347 -4.95553377
X -33.52608564 31.09053085 -37.82298235
X -3.37986735 37.33184349 -3.36622704
X -28.05734540 62.97573386 -36.04609517
X -16.76304282 29.80476829 -3.36622368
X -39.92899824 29.01009772 -39.41229037
X -19.20873781 45.65357166 -6.73244111
X -23.16595542 51.10020621 -25.15280431
X -40.86317060 36.04604494 -49.51092460
X -8.84860759 23.07232510 -53.67178364
X -35.97178063 31.88517373 -63.77041867
X -29.56886802 51.59133004 -24.35815006
X -21.65443279 40.69804828 -15.84882305
X 3.02304526 31.09053165 -36.04608093
X -22.58860515 31.09053500 -28.51900573
X -32.01456301 37.33184093 -9.11640081
X 5.46874024 49.51089355 -33.47453327
X -21.65443279 36.53718044 -22.58124191
X -39.92899824 19.70612526 -30.10830959
X -32.01456301 41.49270461 -11.68795856
X -21.65443279 17.32216556 -21.78657886
X -19.20873781 57.52909514 -26.92970860
X 0.00000000 31.09053916 -19.21502912
X -35.97178063 38.61760268 -45.35006091
X -24.10012778 50.79667787 -19.21503792
X -20.14291017 52.08245466 -21.78659438
X -21.65443279 32.37632684 2.57154143
X -9.78277995 26.92966716 -35.25142460
X -17.69721518 21.78656175 -20.99192638
X -38.41747561 37.82295803 -23.37589696
X -33.52608564 67.93126555 -8.32176001
X 0.00000000 35.25140621 -14.25951167
X -8.84860759 65.05617114 -25.15281055
X -13.73999756 55.75220204 -8.32175457
X -2.44569499 62.97574058 -20.99194478
X 5.46874024 52.08246138 -6.73244399
X -42.37469323 1.28576335 -32.67985726
X -39.92899824 30.59941374 -23.56348621
X -35.97178063 27.72433517 -4.95553169
X -43.30886559 52.87711436 -10.09865470
X -3.37986735 54.95755243 2.57153134
X -29.56886802 54.16288522 -25.94746015
X -48.77760583 14.25947983 -36.04607341
X -29.56886802 29.80475821 -25.94744927
X -25.61165041 41.98380668 -59.60955835
X 5.46874024 29.31363358 -28.51900494
X -42.37469323 5.44664128 -3.36621279
X -25.61165041 19.21501488 -0.79466305
X -11.29430258 26.43854670 -28.51900366
X -34.46025800 43.26960524 -13.46486078
X -44.82038822 35.74253083 -11.68795600
X -33.52608564 43.57313853 -8.32174913
X -50.28912846 36.53717292 -39.41229373
X -36.90595299 50.79666699 -43.57316494
X -35.97178063 38.61761099 -26.74210768
X -12.80582520 16.03638876 -19.21502239
X -38.41747561 50.30555245 -23.56349501
X -40.86317060 41.18917547 -7.52709359
X -13.73999756 16.33991374 -32.67986398
X -54.24634608 37.82296396 -10.09864798
X -15.25152019 52.08245803 -14.25951919
X -21.65443279 32.37630844 -38.61763740
X -28.63469567 25.94742287 -29.31365792
X -35.97178063 38.61759596 -60.40421131
X -19.20873781 41.49268958 -45.35006220
X -36.90595299 23.86698895 -32.67986735
X -8.84860759 40.69805501 -0.79467265
X -15.25152019 49.51090700 -3.36623248
X -17.69721518 36.84071631 -11.68795649
X -19.20873781 37.33183004 -33.47452783
X -39.92899824 50.79667787 -19.21503792
X -59.13773605 39.41226317 -31.88521981
X -17.69721518 16.03637788 -43.57314942
X -54.24634608 21.78656175 -20.99192638
X -25.61165041 65.35970029 -29.31367551
X -60.64925868 23.86699903 -10.09864175
X -39.92899824 37.33184014 -10.89330224
X -25.61165041 57.03797468 -20.19728766
X -17.69721518 25.94742623 -21.78658271
X -36.90595299 61.68997051 -3.36623792
X -11.29430258 26.43855006 -20.99192846
X -56.69204106 42.77847805 -21.78659022
X -33.52608564 48.71625067 -7.52709696
X -11.29430258 59.11840604 -22.58125200
X -9.78277995 36.84071631 -11.68795649
X -15.25152019 25.15276574 -35.25142381
X -19.20873781 48.22512348 -15.84882640
X -33.52608564 46.14470044 5.14309118
X -37.48330326 27.23319294 -46.93936477
X -23.16595542 10.09861198 -42.77849228
X -38.41747561 46.14467869 -43.57316285
X -34.46025800 23.07232510 -53.67178364
X -33.52608564 63.77039098 -30.10832928
X -7.33708496 33.47450143 -21.78658607
X -3.37986735 39.90339452 -14.25951375
X -8.84860759 1.28577343 -10.09863166
X -41.44052087 57.03797963 -9.11640962
X -20.14291017 36.04605582 -25.15279759
X -12.80582520 59.60952986 -21.78659775
X 0.00000000 24.35812365 -7.52708608
X -31.08039065 45.35004667 6.73240047
X 3.95721762 29.80475485 -33.47452447
X -24.67747805 32.37631595 -21.78658558
X -13.73999756 40.69804412 -25.15279966
X -44.82038822 19.70612526 -30.10830959
X -23.16595542 40.20692702 -10.89330351
X -13.73999756 28.21544811 -28.51900445
X -24.10012778 65.85082491 -26.74211984
X -29.56886802 56.73443209 -46.14472348
X -19.20873781 19.70612782 -24.35813582
X -21.65443279 33.96563614 3.36619520
X -25.61165041 72.09212251 -25.94746816
X -56.69204106 20.99190541 -25.15279086
X -6.40291260 15.54526414 -21.78657807
X -10.36013022 27.72432093 -36.84073390
X -14.31734783 61.68996714 -10.89331311
X -50.28912846 25.64388700 -40.20694334
X -16.76304282 51.59133083 -22.58124864
X -54.24634608 52.87711852 -0.79467809
X -33.52608564 46.14467869 -43.57316285
X -17.69721518 37.82296396 -10.09864798
X -20.14291017 38.61761693 -13.46485870
X -27.12317304 12.97371311 -10.89329136
X -28.05734540 45.35002492 -41.98385356
X -40.86317060 45.35003995 -8.32174993
X -29.56886802 36.53717213 -41.18919515
X -11.29430258 30.59941374 -23.56348621
X -37.48330326 35.55492862 -33.47452704
X -35.03760827 50.79668459 -4.16088753
X -2.44569499 14.25948991 -13.46484783
X -40.86317060 45.35003244 -25.15280174
X -38.41747561 26.92967468 -18.42037279
X -15.25152019 30.29588203 -25.15279501
X -24.10012778 65.85083836 3.36618096
X -22.58860515 21.78656175 -20.99192638
X -39.92899824 15.54525998 -31.09055468
X -31.08039065 41.18917883 -0.00001840
X -7.91443523 48.71624730 -15.05417216
X -21.65443279 62.48462012 -14.25952383
X -23.16595542 45.35002492 -41.98385356
X -24.67747805 27.23319967 -31.88521437
X -13.73999756 23.07234270 -14.25950623
X -41.44052087 25.94742959 -14.25950751
X -11.29430258 26.43853246 -60.40420588
X -21.65443279 55.75218780 -40.20695678
X -26.54582277 18.91147150 -28.51900029
X -24.10012778 15.54524990 -53.67178028
X -37.48330326 14.75060365 -35.25141916
X -2.44569499 42.77848141 -14.25951503
X -15.25152019 38.61762860 12.67016973
X -39.92899824 33.17096892 -25.15279631
X -38.41747561 66.34194122 -42.77851741
X -15.25152019 47.92158346 -36.04608845
X -55.18051843 54.16289195 -10.89330975
X -12.80582520 32.67985518 -3.36622496
X -16.18569255 29.01010108 -31.88521517
X -27.12317304 28.02786351 -10.89329808
X -31.08039065 33.47450815 -6.73243567
X -19.20873781 24.84925500 10.09861999
X -41.44052087 17.62568382 -50.30557085
X -6.40291260 65.85082411 -28.51902126
X 3.02304526 35.25140621 -14.25951167
X -12.80582520 39.41227405 -7.52709281
X -7.33708496 40.20691694 -33.47452911
X -25.61165041 52.87710091 -40.20695550
X -38.41747561 63.77039098 -30.10832928
X -6.40291260 52.38598637 -20.19728557
X -47.84343347 54.95754571 -12.48261905
X -47.26608320 58.32375563 -13.46486750
X -19.20873781 20.68838715 3.36620112
X -6.40291260 2.08042384 -19.21501616
X -19.20873781 11.38440046 -19.21502032
X -16.76304282 50.00201738 -32.67987902
X -19.20873781 18.11681853 -25.15278958
X -52.73482345 50.79667787 -19.21503792
X -59.13773605 17.62569806 -18.42036863
X -17.69721518 39.41226653 -24.35814461
X -29.56886802 31.39407423 -10.09864511
X -15.25152019 18.42034431 -36.84072975
X -42.37469323 1.28575999 -40.20693246
X -4.89138997 31.09053500 -28.51900573
X -29.56886802 23.07235358 10.09862079
X -47.26608320 51.59132332 -39.41230045
X -30.50304038 52.87710091 -40.20695550
X -43.30886559 24.35812030 -15.05416128
X -25.61165041 57.03796460 -42.77851325
X -7.33708496 53.67177484 3.36618639
X -11.29430258 39.90338028 -46.14471596
X -23.16595542 38.61761772 -11.68795728
X -11.29430258 35.74251659 -43.57315821
X -8.84860759 51.59131996 -46.93937565
X -24.10012778 57.52909930 -17.62573198
X -12.80582520 48.71625403 -0.00002176
X -0.93417236 33.96563277 -4.16088001
X -43.30886559 31.09053916 -19.21502912
X -16.18569255 48.22512348 -15.84882640
X -46.33191084 52.87711179 -15.84882849
X -46.33191084 32.67984174 -33.47452576
X -20.14291017 25.15276574 -35.25142381
X -63.09495366 36.53718044 -22.58124191
X -27.12317304 34.76027902 -22.58124112
X -9.78277995 57.03798299 -1.58933441
X -12.80582520 50.30554573 -38.61764540
X -28.05734540 14.25949071 -11.68794641
X -37.48330326 50.00202411 -17.62572862
X -31.08039065 36.04605582 -25.15279759
X -23.16595542 27.72432013 -38.61763532
X -18.27456545 27.72432428 -29.31365870
X -11.29430258 59.11841276 -7.52710160
X -12.80582520 46.14468956 -19.21503584
X -20.72026044 20.19725245 -21.78658015
X -16.76304282 65.05616777 -32.67988574
X -20.14291017 36.04605245 -32.67987278
X 3.95721762 36.53718044 -22.58124191
X -50.28912846 32.37631932 -14.25951039
X -11.29430258 15.54526078 -29.31365327
X -25.61165041 -1.58932354 -32.67985598
X -28.05734540 10.09862207 -20.19726669
X -35.97178063 46.93933501 -39.41229838
X -16.76304282 55.75219116 -32.67988158
X -43.88621586 36.04606334 -8.32174577
X -35.97178063 25.15276239 -42.77849901
X -46.33191084 32.67983758 -42.77850237
X -51.22330082 50.30555245 -23.56349501
X -29.56886802 -2.87509776 -24.35812573
X -20.14291017 49.51090700 -3.36623248
X -2.44569499 7.52707184 -7.52707856
X -21.65443279 20.50078496 -18.42036991
X -31.08039065 46.93935261 -0.00002096
X -16.76304282 38.12649310 -14.25951295
X -25.61165041 35.25141116 -3.17863363
X -10.36013022 56.24331499 -31.88522733
X -33.52608564 25.94743039 -12.48260609
X -21.65443279 29.80476493 -10.89329887
X -20.72026044 31.09053837 -20.99193054
X -52.73482345 61.68995707 -33.47453871
X -40.86317060 49.51089276 -35.25143469
X -25.61165041 65.35969692 -36.84075071
X -20.72026044 37.82296059 -17.62572318
X -12.80582520 35.25140621 -14.25951167
X -25.61165041 55.44865866 -36.04609181
X -31.08039065 27.72432349 -31.09056013
X -44.82038822 11.38440381 -11.68794512
X -7.33708496 42.77847805 -21.78659022
X -7.91443523 41.98382844 -10.89330432
X -0.93417236 38.12649646 -6.73243776
X -8.84860759 25.64389036 -32.67986813
X -30.50304038 25.94742623 -21.78658271
X -39.92899824 44.06426987 9.30395694
X -16.18569255 54.95755243 2.57153134
X -11.87165285 27.23319630 -39.41228958
X -17.69721518 31.09054588 -4.16087873
X -23.16595542 60.40418699 -15.84883185
X -8.84860759 23.07234270 -14.25950623
X -28.63469567 46.14469628 -4.16088544
X -8.84860759 29.80477581 13.46482814
X -12.80582520 15.05413695 -30.10830752
X 5.46874024 42.77847468 -29.31366543
X -23.16595542 12.67017725 -21.78657678
X -33.52608564 25.94743375 -4.95553089
X -34.46025800 47.43047723 2.57153471
X -19.20873781 26.43855006 -20.99192846
X -32.94873537 45.35004331 -0.79467473
X -35.97178063 14.25947983 -36.04607341
X -17.69721518 46.14468541 -28.51901246
X -25.61165041 63.77039771 -15.05417888
X -24.67747805 33.96562525 -20.99193182
X -14.31734783 44.06425484 -24.35814669
X -52.73482345 30.59940702 -38.61763660
X -43.30886559 41.98382508 -18.42037952
X -10.36013022 10.09862959 -3.36621487
X -55.18051843 58.32374555 -36.04609310
X -55.18051843 33.96562525 -20.99193182
X -33.52608564 41.98383260 -1.58932769
X -21.65443279 49.01978317 -4.16088673
X -25.61165041 29.50123243 -14.25950910
X -28.05734540 11.68793296 -15.84881009
X -37.48330326 51.59133499 -13.27727202
X -39.92899824 45.65356158 -29.31366672
X -16.76304282 38.12648974 -21.78658815
X -32.01456301 18.11681181 -40.20693998
X -30.50304038 46.14468956 -19.21503584
X -32.01456301 22.27769053 -9.11639409
X -11.87165285 54.16288858 -18.42038495
X -23.16595542 25.15276574 -35.25142381
X -30.50304038 55.44866202 -28.51901662
X -33.52608564 39.41227485 -5.75019138
X -7.33708496 31.88518797 -31.88521646
X -19.20873781 6.24130177 10.09862831
X -48.77760583 53.67176396 -20.99194062
X -19.20873781 22.27770061 13.46483150
X -17.69721518 2.57154687 -20.19726332
X -11.29430258 34.76028574 -7.52709072
X -9.78277995 17.62569390 -27.72434525
X -44.82038822 22.27770061 13.46483150
X -31.08039065 60.40419371 -0.79468145
X -43.88621586 41.18917211 -15.05416879
X -16.76304282 25.64389788 -15.84881632
X -3.37986735 35.74251995 -36.04608302
X -48.77760583 60.40418619 -17.62573327
X -30.50304038 28.51899149 -0.79466721
X -34.46025800 55.75218780 -40.20695678
X -24.67747805 20.50079168 -3.36621952
X -47.84343347 28.02786351 -10.89329808
X -27.12317304 23.86699231 -25.15279215
X -63.09495366 16.33992384 -10.09863839
X -16.76304282 36.53718716 -7.52709152
X -48.77760583 20.99191214 -10.09864046
X -42.37469323 16.33991711 -25.15278878
X -38.41747561 20.19725660 -12.48260353
X -12.80582520 41.98382092 -27.72435613
X -60.64925868 33.17097229 -17.62572110
X -47.84343347 50.79668795 3.36618767
X -11.29430258 8.81284863 -10.09863503
X -63.09495366 54.16288522 -25.94746015
X -46.33191084 17.62569471 -25.94744383
X -41.44052087 28.51897726 -32.67986942
X -8.84860759 51.59132748 -30.10832384
X -48.77760583 29.31362686 -43.57315533
X -43.88621586 53.67176812 -11.68796400
X -16.76304282 38.12647550 -53.67179037
X -35.97178063 62.97574058 -20.99194478
X -25.61165041 30.10829071 -22.58123905
X -56.69204106 49.51090700 -3.36623248
X -35.97178063 49.51091452 13.46481934
X -27.12317304 15.54525742 -36.84072846
X -8.84860759 23.07234350 -12.48260481
X -2.44569499 27.72432844 -20.00968209
X -32.01456301 44.06425820 -16.83107149
X -28.05734540 23.56346396 -19.21502576
X -26.54582277 54.16288522 -25.94746015
X -29.56886802 25.64389294 -26.92969436
X -48.77760583 18.42035776 -6.73242895
X 1.51152263 37.33184014 -10.89330224
X -19.20873781 30.59942878 10.09861742
X -13.73999756 43.26959179 -43.57316157
X -15.82887046 21.78655503 -36.04607678
X -19.20873781 53.36823482 -16.83107566
X -39.92899824 65.85083836 3.36618096
X -15.25152019 38.61761772 -11.68795728
X -7.91443523 48.71624058 -30.10832255
X -47.26608320 38.12647886 -46.14471517
X -42.37469323 40.69803740 -40.20695005
X -44.82038822 61.68996042 -25.94746351
X 9.42595786 23.86699566 -17.62571695
X 0.00000000 35.25139613 -36.84073726
X -10.36013022 20.99189869 -40.20694126
X -16.18569255 39.90338779 -29.31366415
X -21.65443279 12.17905679 -15.05415584
X -16.76304282 60.89529658 -46.93937981
X -25.61165041 43.57312350 -41.98385276
X -13.73999756 18.91147150 -28.51900029
X -44.82038822 4.65198159 -15.05415248
X -12.80582520 10.89328255 -6.73242559
X 7.91443523 59.60952650 -29.31367295
X -29.56886802 -2.87510113 -31.88520093
X -32.01456301 15.54526414 -21.78657807
X 5.46874024 31.88518797 -31.88521646
X -38.41747561 22.76882108 6.73241056
X -27.12317304 38.92113599 -40.20694927
X -40.86317060 31.88518461 -39.41229165
X -29.56886802 53.18064350 -14.25951968
X -48.77760583 7.52707520 -0.00000336
X -17.69721518 33.66208940 -31.88521725
X -40.86317060 41.18916874 -22.58124399
X -17.69721518 46.14468876 -20.99193726
X -44.82038822 30.59940702 -38.61763660
X -14.31734783 23.86699903 -10.09864175
X -43.88621586 49.51091452 13.46481934
X -24.10012778 19.70612782 -24.35813582
X -43.88621586 10.09862207 -20.19726669
X -37.48330326 32.37630923 -36.84073598
X -35.97178063 71.29747626 -7.52710704
X -51.22330082 6.73241887 -4.16086784
X -60.64925868 50.79668123 -11.68796272
X -8.84860759 18.91148573 3.36620191
X -12.80582520 66.34195130 -20.19729181
X -39.92899824 53.36822474 -39.41230124
X -2.44569499 29.31362686 -43.57315533
X -43.88621586 49.51090107 -16.64348145
X -11.29430258 17.13457088 -26.74209808
X -18.27456545 34.45675324 -10.89330095
X -38.41747561 6.73240127 -43.57314526
X -6.40291260 41.49268286 -60.40421259
X -8.84860759 47.43046556 -23.56349373
X -29.56886802 33.96562941 -11.68795520
X -14.31734783 37.33182253 -50.30557964
X -9.78277995 17.62568382 -50.30557085
X -12.80582520 37.82295724 -25.15279838
X -44.82038822 65.85082075 -36.04609645
X -39.92899824 54.95754828 -6.73244527
X -35.97178063 71.29746954 -22.58125743
X -32.01456301 72.58323962 -40.20696430
X -43.30886559 46.14467869 -43.57316285
X -38.41747561 16.03639213 -11.68794720
X -28.05734540 27.72433180 -12.48260688
X -28.05734540 49.51090700 -3.36623248
X -3.37986735 54.95754235 -20.00969425
X -32.01456301 31.58165963 -25.94745006
X -56.69204106 45.35004667 6.73240047
X -21.65443279 31.39407167 -15.84881889
X -35.97178063 22.58121215 -30.10831088
X 1.51152263 44.06425228 -30.10832048
X -41.44052087 37.82296059 -17.62572318
X -39.92899824 39.90340540 10.09861326
X -18.27456545 38.61762108 -4.16088208
X 3.95721762 27.23319967 -31.88521437
X -7.33708496 18.42034767 -29.31365455
X -30.50304038 20.19725917 -6.73242975
X -2.44569499 38.61761357 -20.99193390
X -7.91443523 28.51898062 -25.15279422
X -21.65443279 5.44662783 -33.47451359
X -47.84343347 26.43854333 -36.04607886
X -3.37986735 26.43855006 -20.99192846
X 0.00000000 57.03796460 -42.77851325
X -26.54582277 23.07234606 -6.73243103
X -50.28912846 27.23321390 -0.00001216
X -46.33191084 13.46483359 -17.62571230
X -37.48330326 29.80476078 -20.19727549
X 5.46874024 25.15277663 -10.89329679
X -24.10012778 44.06425900 -15.05417008
X -0.93417236 44.85891196 -18.42038079
X -32.01456301 19.70612862 -22.58123440
X -37.48330326 43.26959931 -26.74210976
X -24.67747805 54.16288522 -25.94746015
X -35.97178063 31.88518125 -46.93936685
X -12.80582520 63.77038683 -39.41230589
X -8.84860759 69.21703562 -25.94746687
X -6.40291260 24.84925500 10.09861999
X -32.01456301 26.43855006 -20.99192846
X -19.20873781 37.33181501 -67.13663147
X -50.28912846 20.50078159 -25.94744512
X -34.46025800 32.37632011 -12.48260897
X 5.46874024 38.61760348 -43.57315949
X -20.72026044 20.19724909 -29.31365534
X -55.18051843 51.59132668 -31.88522526
X 9.42595786 19.70612782 -24.35813582
X -54.24634608 32.67985518 -3.36622496
X -9.78277995 30.10829071 -22.58123905
X -2.44569499 14.25948655 -20.99192302
X -39.92899824 48.22512684 -8.32175121
X -23.16595542 20.99190957 -15.84881425
X -42.37469323 12.17906351 -0.00000544
X -0.93417236 29.80475821 -25.94744927
X -11.29430258 33.17097229 -17.62572110
X -21.65443279 34.94786362 -40.20694749
X -50.28912846 27.23320718 -15.05416256
X -27.12317304 52.38599053 -10.89330896
X -38.41747561 54.46641357 -31.88522653
X -31.08039065 20.99190462 -26.92969228
X -19.20873781 48.22511596 -32.67987823
X -19.20873781 8.81285279 -0.79465840
X -13.73999756 45.84115290 -31.88522269
X -2.44569499 14.25948398 -26.74209680
X -18.27456545 25.15276990 -25.94744719
X -21.65443279 17.32216220 -29.31365406
X -20.72026044 37.82296396 -10.09864798
X -21.65443279 54.16287434 -50.30558716
X -7.91443523 46.14468204 -36.04608766
X -17.69721518 46.14469292 -11.68796065
X -14.31734783 19.70612447 -31.88521101
X -15.25152019 23.56347405 3.36619984
X -23.16595542 47.92158346 -36.04608845
X -33.52608564 59.60952314 -36.84074815
X -29.56886802 10.58974669 -17.62571102
X -50.28912846 36.53717965 -24.35814334
X -32.01456301 52.38598717 -18.42038416
X -13.73999756 23.07233934 -21.78658142
X 3.95721762 25.64390124 -8.32174113
X -35.97178063 41.18916459 -31.88522061
X -33.52608564 20.19725165 -23.56348156
X -20.14291017 10.09861535 -35.25141709
X -37.48330326 32.37631595 -21.78658558
X -39.92899824 41.49270382 -13.46485998
X -19.20873781 42.47495226 -10.09865006
X -17.69721518 44.55537195 -38.61764284
X -14.31734783 37.33182589 -42.77850445
X -19.20873781 52.38598637 -20.19728557
X -40.86317060 20.99190878 -17.62571567
X -20.72026044 41.98381756 -35.25143133
X -15.25152019 20.99190126 -34.45676748
X 1.51152263 54.95754828 -6.73244527
X -10.36013022 23.56347068 -4.16087536
X -12.80582520 32.67984766 -20.19727677
X -4.89138997 35.25140364 -20.00968545
X -42.37469323 60.89529993 -39.41230461
X -23.16595542 34.45674315 -33.47452655
X -24.10012778 19.70612526 -30.10830959
X -52.73482345 57.52909930 -17.62573198
X -40.86317060 31.88518125 -46.93936685
X -38.41747561 63.77039019 -31.88523070
X -33.52608564 33.66209612 -16.83106685
X 0.00000000 6.73241551 -11.68794304
X -23.16595542 10.09862622 -10.89329007
X -8.84860759 25.64390797 6.73240928
X -43.88621586 52.08245466 -21.78659438
X -20.72026044 41.98382923 -9.11640290
X -11.29430258 26.43855085 -19.21502704
X -6.40291260 52.38597629 -42.77851117
X -20.72026044 33.66209019 -30.10831583
X 3.95721762 40.69803740 -40.20695005
X -41.44052087 36.84071966 -4.16088129
X -24.10012778 50.79668043 -13.46486414
X -0.93417236 51.59133420 -15.05417344
X -33.52608564 30.10828735 -30.10831424
X -42.37469323 20.50077823 -33.47452032
X -20.14291017 29.31363438 -26.74210352
X -16.76304282 16.33991790 -23.37588737
X 1.51152263 48.22512269 -17.62572782
X -52.73482345 8.81283519 -40.20693582
X -7.33708496 20.99189454 -49.51091788
X -16.18569255 39.90339788 -6.73243855
X -12.80582520 21.78657263 3.36620063
X -27.12317304 34.76028910 -0.00001552
X -7.33708496 52.08245466 -21.78659438
X -11.29430258 38.92114943 -10.09864847
X -42.37469323 29.80475069 -42.77850109
X -19.20873781 63.27926636 -32.67988495
X -17.69721518 33.66209019 -30.10831583
X -44.82038822 48.22511260 -40.20695343
X -13.73999756 21.48302924 -24.35813661
X -4.89138997 52.87711436 -10.09865470
X -8.84860759 27.23320639 -16.83106398
X -38.41747561 52.87711515 -8.32175328
X -28.99151776 44.06426572 -0.00001968
X -48.77760583 20.99191293 -8.32173904
X -33.52608564 26.92966044 -50.30557500
X -2.44569499 56.24331915 -22.58125071
X -16.76304282 58.32375563 -13.46486750
X -19.20873781 39.90339452 -14.25951375
X -15.25152019 29.31364031 -13.46485454
X -59.13773605 35.25140957 -6.73243647
X -20.72026044 35.25140621 -14.25951167
X -27.12317304 59.11841612 -0.00002640
X -29.56886802 58.32375643 -11.68796608
X -27.12317304 26.43854333 -36.04607886
X -17.69721518 22.76880348 -32.67986686
X -46.33191084 13.46482686 -32.67986271
X -4.89138997 32.67984510 -25.94745055
X -16.76304282 29.80475821 -25.94744927
X -23.16595542 26.13502843 -0.00001167
X -33.52608564 59.60953659 -6.73244735
X -21.65443279 14.75060365 -35.25141916
X -38.41747561 28.51898734 -10.09864383
X -37.48330326 29.80475821 -25.94744927
X -19.20873781 0.49111038 -29.31364654
X -8.84860759 58.32374555 -36.04609310
X -51.22330082 21.78656175 -20.99192638
X -19.20873781 52.38598380 -25.94745936
X -35.39443036 41.98383181 -3.36622911
X -15.25152019 46.93934925 -7.52709616
X -15.25152019 30.29588955 -8.32174320
X -36.90595299 61.68996042 -25.94746351
X -29.56886802 50.00201322 -41.98385563
X -17.69721518 26.92966381 -42.77849980
X -29.56886802 24.66164607 -26.74210145
X -11.29430258 48.22511933 -25.15280302
X 3.95721762 38.12647886 -46.14471517
X -39.92899824 30.59940030 -53.67178700
X -21.65443279 38.12648974 -21.78658815
X -48.77760583 20.99190541 -25.15279086
X -14.31734783 48.22511933 -25.15280302
X -43.88621586 16.83103422 -39.41228493
X -37.48330326 12.17904255 -46.93935805
X -6.40291260 41.49268958 -45.35006220
X -17.69721518 31.09053916 -19.21502912
X -46.33191084 28.51898734 -10.09864383
X -13.73999756 27.23320382 -22.58123776
X -30.50304038 63.77039098 -30.10832928
X -40.86317060 52.08244793 -36.84074478
X -3.37986735 35.74251659 -43.57315821
X -33.52608564 32.67985598 -1.58932354
X -46.33191084 43.57313774 -10.09865055
X -25.61165041 17.62569806 -18.42036863
X -7.33708496 14.25947983 -36.04607341
X -28.05734540 53.67177484 3.36618639
X -20.72026044 37.82295724 -25.15279838
X -15.25152019 20.99190462 -26.92969228
X -48.77760583 29.31363695 -20.99192975
X -11.29430258 24.84924076 -21.78658222
X -16.18569255 39.90338443 -36.84073935
X -10.36013022 45.35003659 -15.84882512
X -42.37469323 18.91147565 -19.21502368
X -32.01456301 15.54525998 -31.09055468
X -29.56886802 36.53716877 -48.71627034
X -15.25152019 34.45675404 -9.11639953
X -35.97178063 22.58122560 -0.00001008
X -27.12317304 29.01011532 -0.00001296
X -25.61165041 62.18107337 -49.51093628
X -27.12317304 30.59940782 -36.84073519
X -34.46025800 62.48461675 -21.78659903
X -25.61165041 51.89485918 -28.51901502
X -2.44569499 53.67176733 -13.46486542
X -27.12317304 30.59942206 -4.95553297
X -32.01456301 6.24128832 -20.00967249
X -4.89138997 24.35811614 -24.35813789
X -28.05734540 11.68793631 -8.32173489
X -36.90595299 61.68996379 -18.42038831
X 5.46874024 18.42034431 -36.84072975
X -13.73999756 36.53718300 -16.83106814
X -43.88621586 23.56345644 -36.04607757
X -29.56886802 59.91305900 -25.94746271
X -28.05734540 44.36778062 -36.04608686
X -11.29430258 37.33183677 -18.42037743
X -24.10012778 52.38598045 -33.47453456
X 0.00000000 37.82296139 -15.84882176
X -36.90595299 48.22511596 -32.67987823
X -13.73999756 27.23319967 -31.88521437
X -21.65443279 33.96561774 -37.82298363
X -28.05734540 30.29589627 6.73240719
X -23.16595542 62.97573049 -43.57317038
X -24.10012778 50.79667035 -36.04608974
X -7.33708496 41.18917883 -0.00001840
X -0.93417236 18.91147822 -13.46484990
X -12.80582520 66.34194794 -27.72436701
X -42.37469323 18.91147486 -20.99192510
X -14.31734783 15.54526414 -21.78657807
X -20.72026044 55.44866202 -28.51901662
X -44.82038822 15.54526414 -21.78657807
X 1.51152263 37.33183341 -25.94745264
X -37.48330326 12.17904590 -39.41228285
X -40.86317060 56.24332922 -0.00002512
X -17.69721518 24.35810941 -39.41228829
X -12.80582520 17.62569886 -16.64346721
X -32.01456301 23.86699903 -10.09864175
X -22.23178306 44.06426572 -0.00001968
X -39.92899824 35.74252411 -26.74210640
X -35.97178063 52.08245803 -14.25951919
X -56.69204106 25.15277326 -18.42037200
X -16.76304282 36.53717628 -31.88521853
X -38.41747561 41.98382844 -10.89330432
X -35.97178063 67.13660506 -21.78660111
X -24.10012778 26.43854254 -37.82298028
X -19.20873781 44.06424476 -46.93937229
X -7.33708496 29.31364110 -11.68795313
X -32.01456301 15.54524990 -53.67178028
X -28.63469567 25.94743295 -6.73243232
X -4.89138997 52.87710091 -40.20695550
X -15.25152019 42.77846717 -46.14471725
X -2.44569499 56.24331163 -39.41230254
X -39.92899824 23.86699982 -8.32174033
X -19.20873781 44.06426315 -5.75019346
X -39.92899824 38.92114270 -25.15279887
X -54.24634608 41.98382844 -10.89330432
X -16.76304282 36.53718380 -15.05416672
X -52.73482345 26.43854749 -26.74210224
X -16.18569255 37.33184014 -10.89330224
X -10.36013022 41.18916538 -30.10831919
X -34.46025800 36.53718459 -13.27726529
X -11.29430258 48.22512012 -23.37590161
X -29.56886802 33.96563356 -2.38397858
X -2.44569499 46.93933837 -31.88522318
X -34.46025800 29.80475406 -35.25142589
X -32.01456301 72.58324298 -32.67988910
X -36.90595299 46.63580666 -33.47453199
X -6.40291260 72.58325306 -10.09866351
X -21.65443279 40.69802988 -57.03800188
X -54.24634608 31.09054173 -13.46485534
X -21.65443279 35.55494207 -3.36622624
X -20.72026044 31.09053165 -36.04608093
X -33.52608564 35.25141709 10.09861535
X -44.82038822 19.70612782 -24.35813582
X -37.48330326 47.43047050 -12.48261569
X -29.56886802 55.75218780 -40.20695678
X 9.42595786 30.59942126 -6.73243439
X -21.65443279 17.32215884 -36.84072926
X -2.44569499 18.42035103 -21.78657935
X -25.61165041 -0.00000336 -7.52707520
X -36.90595299 48.22511933 -25.15280302
X -32.01456301 33.17098732 16.03638253
X -44.82038822 48.22511517 -34.45677965
X -33.52608564 32.67985182 -10.89330016
X -20.72026044 21.78656590 -11.68794976
X -35.03760827 26.43855006 -20.99192846
X -35.97178063 20.99190541 -25.15279086
X -25.61165041 48.71623643 -39.41229917
X -33.52608564 24.35810862 -41.18918971
X -7.33708496 42.77847468 -29.31366543
X -28.05734540 36.04606254 -10.09864719
X -24.10012778 18.11682526 -10.09863918
X -16.76304282 60.89530330 -31.88522941
X -6.40291260 15.54526078 -29.31365327
X -19.20873781 19.70612526 -30.10830959
X -43.88621586 38.61760348 -43.57315949
X -39.35164797 40.69804749 -17.62572447
X -7.91443523 46.14468876 -20.99193726
X -17.69721518 10.89327247 -29.31365119
X -31.08039065 56.24332922 -0.00002512
X -32.01456301 4.65197487 -30.10830287
X -16.76304282 5.44662783 -33.47451359
X -42.37469323 42.28735342 -24.35814590
X -35.97178063 27.72431341 -53.67178572
X -56.69204106 20.99190206 -32.67986606
X -19.20873781 38.92114943 -10.09864847
X -48.77760583 45.35004331 -0.79467473
X -8.84860759 40.69804749 -17.62572447
X 9.42595786 23.86699231 -25.15279215
X -20.14291017 60.40419707 6.73239376
X -8.84860759 32.37631260 -29.31366078
X 0.00000000 6.73241887 -4.16086784
X -7.91443523 10.89327247 -29.31365119
X 1.51152263 30.59941374 -23.56348621
X 3.02304526 37.82295052 -40.20694878
X -39.92899824 35.74252747 -19.21503119
X -26.54582277 39.10873819 -18.42037823
X -19.20873781 12.97372063 5.93776046
X -14.31734783 37.33183341 -25.94745264
X -38.41747561 6.73240878 -26.74209344
X -46.33191084 36.84071215 -20.99193310
X -32.01456301 39.90339195 -20.00968752
X -38.41747561 10.89326911 -36.84072639
X -25.61165041 28.51898142 -23.37589280
X -24.10012778 41.49270125 -19.21503377
X -55.18051843 51.59133004 -24.35815006
X -4.89138997 36.84070207 -43.57315870
X -33.52608564 10.89326911 -36.84072639
X -51.22330082 32.67984094 -35.25142717
X -18.27456545 31.88519212 -22.58123984
X -32.01456301 37.33181501 -67.13663147
X -26.54582277 36.53719052 -0.00001631
X -52.73482345 26.43855422 -11.68795184
X -35.97178063 42.77849228 10.09861198
X -56.69204106 56.24331915 -22.58125071
X -24.67747805 27.23320382 -22.58123776
X -28.99151776 23.86698559 -40.20694254
X -23.16595542 67.13660842 -14.25952591
X -56.69204106 45.35003916 -10.09865135
X -28.05734540 47.92158682 -28.51901325
X -27.12317304 37.33183341 -25.94745264
X -39.92899824 17.13458432 3.36620272
X -8.84860759 36.53718380 -15.05416672
X -0.93417236 40.69805164 -8.32174785
X -11.29430258 61.68996379 -18.42038831
X -8.84860759 31.39407087 -17.62572031
X -21.65443279 33.96562605 -19.21503040
X -27.12317304 37.33184429 -1.58932562
X -23.16595542 5.93775502 -25.15278414
X -17.69721518 52.87712187 6.73239711
X -56.69204106 52.08245803 -14.25951919
X -3.37986735 46.63581675 -10.89330639
X -44.82038822 22.27768973 -10.89329551
X -23.16595542 -0.79466385 -20.99191630
X -51.22330082 39.41226989 -16.83106942
X -31.08039065 53.67176139 -26.74211441
X -29.56886802 21.48302924 -24.35813661
X -8.84860759 12.17906014 -7.52708064
X -20.14291017 34.45674908 -20.19727757
X -17.69721518 43.57313181 -23.37589952
X -3.37986735 26.43853998 -43.57315406
X -28.05734540 34.45676076 5.93775086
X -26.54582277 47.43047723 2.57153471
X -48.77760583 36.04605582 -25.15279759
X -17.69721518 67.93126555 -8.32176001
X -48.77760583 36.04604830 -41.98384940
X -6.40291260 44.06425484 -24.35814669
X -30.50304038 46.14469292 -11.68796065
X -25.61165041 48.71625403 -0.00002176
X -22.58860515 32.67985518 -3.36622496
X -28.05734540 20.99191630 -0.79466385
X -6.40291260 61.68996298 -20.19728973
X -20.14291017 25.15276239 -42.77849901
X -22.23178306 46.63581675 -10.89330639
X -2.44569499 34.45676411 13.46482606
X -11.29430258 23.86699903 -10.09864175
X -33.52608564 51.28779081 -42.77851068
X -48.77760583 49.51088939 -42.77850989
X -20.72026044 28.51897309 -41.98384604
X -16.76304282 36.53717965 -24.35814334
X -8.84860759 40.69804828 -15.84882305
X -29.56886802 34.94787034 -25.15279710
X -18.27456545 41.18917547 -7.52709359
X -29.56886802 3.85732782 -13.46484318
X -9.78277995 52.87711179 -15.84882849
X -25.61165041 33.66209019 -30.10831583
X -31.08039065 31.88518461 -39.41229165
X -7.33708496 29.31363695 -20.99192975
X -9.78277995 35.25140957 -6.73243647
X -48.77760583 49.51089355 -33.47453327
X -47.26608320 54.16289195 -10.89330975
X -47.84343347 46.63582011 -3.36623119
X -28.05734540 20.99190878 -17.62571567
X -19.20873781 37.33182509 -44.55540587
X -13.73999756 25.64389036 -32.67986813
X -29.56886802 45.84115627 -24.35814749
X -0.93417236 58.32375979 -4.16089088
X -27.12317304 8.81284863 -10.09863503
X -11.29430258 54.95754828 -6.73244527
X -7.33708496 47.92159018 -20.99193806
X -0.93417236 58.32375306 -19.21504128
X -19.20873781 49.81442190 -39.41229966
X -20.14291017 23.56345644 -36.04607757
X -30.50304038 24.35810605 -46.93936349
X -27.12317304 29.01010445 -24.35813997
X -24.10012778 44.06425148 -31.88522190
X -11.29430258 54.95754571 -12.48261905
X -17.69721518 13.46481934 -49.51091452
X -23.16595542 16.83104509 -15.05415792
X -4.89138997 57.03797547 -18.42038624
X -26.54582277 36.53718716 -7.52709152
X -3.37986735 37.33183004 -33.47452783
X -27.12317304 11.38438958 -43.57314733
X -43.88621586 56.24331915 -22.58125071
X -38.41747561 26.92967547 -16.64347137
X -16.76304282 1.28576335 -32.67985726
X -29.56886802 16.33991374 -32.67986398
X -25.61165041 16.03639885 3.36620320
X -12.80582520 22.76881435 -8.32173984
X -11.29430258 39.90339452 -14.25951375
X -30.50304038 6.73240127 -43.57314526
X -21.65443279 39.10874491 -3.36622783
X -15.25152019 29.31363695 -20.99192975
X -19.20873781 29.01012284 16.83103886
X -4.89138997 50.30554988 -29.31366879
X -35.03760827 15.54524990 -53.67178028
X -12.80582520 -0.00000672 -15.05415039
X -27.12317304 50.79667371 -28.51901453
X -36.90595299 30.59941374 -23.56348621
X -28.05734540 42.77848477 -6.73243983
X -56.69204106 20.99191214 -10.09864046
X -27.12317304 50.79667708 -20.99193934
X -32.01456301 65.85082411 -28.51902126
X -20.14291017 40.20691694 -33.47452911
X -51.22330082 21.78655839 -28.51900158
X -11.29430258 44.06425900 -15.05417008
X -33.52608564 20.19725245 -21.78658015
X -28.05734540 36.04604158 -57.03799980
X -54.24634608 31.09052828 -43.57315614
X -28.05734540 45.35003916 -10.09865135
X 7.91443523 21.78655839 -28.51900158
X -32.01456301 45.65356078 -31.09056813
X -37.48330326 44.85891533 -10.89330560
X -8.84860759 33.96562941 -11.68795520
X -21.65443279 25.64389709 -17.62571774
X 5.46874024 56.24332922 -0.00002512
X -23.16595542 29.31362686 -43.57315533
X -17.69721518 15.05415039 -0.00000672
X -32.01456301 72.58324634 -25.15281390
X -47.26608320 47.43046971 -14.25951711
X -17.69721518 55.44866538 -20.99194141
X 9.42595786 23.86698559 -40.20694254
X -29.56886802 47.43048060 10.09860991
X 5.46874024 18.42035776 -6.73242895
X -25.61165041 35.25141709 10.09861535
X -8.84860759 40.69803997 -34.45677628
X -35.97178063 -0.79466385 -20.99191630
X -35.97178063 58.81486601 -42.77851404
X -20.72026044 31.09054925 3.36619648
X -43.88621586 45.35002571 -40.20695214
X 15.82887046 21.78655166 -43.57315198
X -6.40291260 34.76027822 -24.35814254
X -38.41747561 31.09052828 -43.57315614
X -56.69204106 14.25948991 -13.46484783
X -27.12317304 8.81283519 -40.20693582
X -21.65443279 8.01818142 -38.61762653
X -14.31734783 19.70613871 -0.00000880
X -16.76304282 47.43047723 2.57153471
X -21.65443279 27.23320382 -22.58123776
X -35.39443036 41.98382508 -18.42037952
X -19.20873781 61.68996042 -25.94746351
X -35.03760827 39.90339788 -6.73243855
X -28.05734540 49.51089612 -27.72435949
X -35.97178063 38.61763196 20.19724494
X -32.01456301 4.65198079 -16.83105389
X -52.73482345 54.95753820 -29.31367087
X -39.35164797 36.53717707 -30.10831711
X -42.37469323 49.01976894 -36.04608894
X -33.52608564 63.77040443 -0.00002848
X -19.20873781 30.59942206 -4.95553297
X -29.56886802 73.37790010 -26.74212320
X -34.46025800 47.43047308 -6.73244191
X -11.29430258 39.90340203 2.57153807
X -21.65443279 21.48302589 -31.88521181
X -50.28912846 29.80475821 -25.94744927
X -41.44052087 39.41227069 -15.05416800
X -32.01456301 30.59942878 10.09861742
X -17.69721518 10.89327584 -21.78657599
X -28.05734540 60.40418283 -25.15280846
X -51.22330082 46.14467869 -43.57316285
X -9.78277995 32.67984510 -25.94745055
X -25.61165041 35.25140701 -12.48261025
X -39.92899824 44.06425484 -24.35814669
X -34.46025800 36.53718300 -16.83106814
X -39.92899824 41.49271133 3.36619183
X -47.84343347 50.79668459 -4.16088753
X -9.78277995 13.46481598 -57.03798971
X -3.95721762 51.59133004 -24.35815006
X -13.73999756 33.96562941 -11.68795520
X -36.90595299 37.33184349 -3.36622704
X -42.37469323 47.43045963 -36.84074270
X -13.73999756 35.55494207 -3.36622624
X -17.69721518 39.41226317 -31.88521981
X -3.95721762 25.64389452 -23.37589152
X -40.86317060 62.97574394 -13.46486958
X 7.91443523 35.25139949 -29.31366207
X -25.61165041 65.35970364 -21.78660031
X -40.86317060 53.67175388 -43.57316622
X -47.84343347 42.47495226 -10.09865006
X -34.46025800 27.23321055 -7.52708736
X -24.10012778 23.86699231 -25.15279215
X -17.69721518 22.76880684 -25.15279166
X -11.29430258 22.27767214 -50.30557292
X -8.84860759 50.00202411 -17.62572862
X -21.65443279 32.37630923 -36.84073598
X -43.88621586 60.40419371 -0.79468145
X -34.46025800 43.26959515 -36.04608637
X -34.46025800 23.07235022 2.57154558
X -33.52608564 9.30395565 -46.93935677
X -16.76304282 69.21703899 -18.42039167
X -40.86317060 31.88519133 -24.35814126
X -44.82038822 11.38440046 -19.21502032
X -7.33708496 36.04605661 -23.37589617
X -29.56886802 3.85732446 -20.99191837
X -29.56886802 45.84114617 -46.93937308
X -15.25152019 30.29589291 -0.79466800
X -2.44569499 42.77847468 -29.31366543
X -20.14291017 27.72432013 -38.61763532
X -12.80582520 17.62568719 -42.77849565
X -25.61165041 -4.16087120 -14.25949407
X -39.92899824 59.11840267 -30.10832720
X -38.41747561 55.44865866 -36.04609181
X -28.05734540 22.58121551 -22.58123568
X -39.92899824 22.27767965 -33.47452111
X -28.05734540 31.88518046 -48.71626827
X -8.84860759 42.28735679 -16.83107070
X -59.13773605 59.60953659 -6.73244735
X -18.27456545 18.42035439 -14.25950415
X -21.65443279 27.23321390 -0.00001216
X -35.97178063 44.36778399 -28.51901167
X 3.95721762 29.80475821 -25.94744927
X -24.10012778 29.01009436 -46.93936557
X -28.05734540 25.15277998 -3.36622159
X -24.10012778 17.13457423 -19.21502288
X -4.89138997 55.44865866 -36.04609181
X -11.29430258 22.27767886 -35.25142253
X -15.25152019 37.02829754 -36.84073806
X -14.31734783 34.76028159 -16.83106733
X -15.25152019 31.88519549 -15.05416463
X -13.73999756 43.26960266 -19.21503456
X -50.28912846 23.07233182 -38.61763325
X -25.61165041 61.19884253 -13.46486878
X -30.50304038 31.09052828 -43.57315614
X -21.65443279 46.44821791 -25.15280223
X -19.20873781 12.97370304 -33.47451695
X -46.33191084 17.62569134 -33.47451903
X -16.76304282 44.85889772 -50.30558301
X -8.84860759 58.32375306 -19.21504128
X -41.44052087 48.71625403 -0.00002176
X -32.94873537 36.04604910 -40.20694798
X -13.73999756 54.16289195 -10.89330975
X -30.50304038 24.35810941 -39.41228829
X -6.40291260 39.90339195 -20.00968752
X -32.01456301 28.02786015 -18.42037328
X -29.56886802 65.05616777 -32.67988574
X -44.82038822 48.22511933 -25.15280302
X -29.56886802 62.48462091 -12.48262242
X -24.67747805 16.33992384 -10.09863839
X -25.61165041 18.60794988 -7.52708351
X -14.31734783 15.54527087 -6.73242767
X -28.05734540 5.93776175 -10.09863374
X -29.56886802 54.16287434 -50.30558716
X -15.25152019 60.40418699 -15.84883185
X 9.42595786 46.63580666 -33.47453199
X -34.46025800 40.69804492 -23.37589824
X -20.72026044 6.73240799 -28.51899486
X -19.20873781 50.79666955 -37.82299115
X -50.28912846 32.37630923 -36.84073598
X -32.01456301 19.70613198 -15.05415920
X -29.56886802 49.01976556 -43.57316414
X -59.13773605 32.67983758 -42.77850237
X -29.56886802 44.85890861 -25.94745599
X -35.97178063 33.47450815 -6.73243567
X -43.88621586 40.20692366 -18.42037872
X -28.05734540 45.35003579 -17.62572654
X -42.37469323 14.75061453 -10.89329215
X -8.84860759 50.00201402 -40.20695421
X 3.02304526 46.14469292 -11.68796065
X -3.95721762 32.37631675 -20.00968416
X -8.84860759 50.00202746 -10.09865342
X -28.05734540 38.61761357 -20.99193390
X -34.46025800 47.43045211 -53.67179453
X 1.51152263 12.97371647 -3.36621615
X -32.01456301 50.79666699 -43.57316494
X -42.37469323 38.12648974 -21.78658815
X -26.54582277 44.85891196 -18.42038079
X -36.90595299 50.79667371 -28.51901453
X -13.73999756 38.12650061 2.57153886
X -28.05734540 27.72432844 -20.00968209
X -37.48330326 28.21545484 -13.46485405
X -8.84860759 54.16288186 -33.47453535
X -44.82038822 50.79668795 3.36618767
X -27.12317304 30.59941790 -14.25950959
X -25.61165041 78.82454474 -22.58126080
X -34.46025800 54.16289531 -3.36623455
X -16.18569255 35.74251995 -36.04608302
X -9.78277995 20.19724829 -31.09055676
X -23.16595542 41.18916538 -30.10831919
X -25.61165041 50.30554653 -36.84074399
X -7.91443523 52.87710763 -25.15280510
X -9.78277995 30.10830080 -0.00001345
X -19.20873781 45.65356830 -14.25951631
X -31.08039065 18.42034431 -36.84072975
X -44.82038822 61.68995707 -33.47453871
X -0.93417236 23.07233934 -21.78658142
X -30.50304038 32.67984846 -18.42037536
X -31.08039065 16.83103085 -46.93936012
X -30.50304038 26.92968140 -3.36622239
X -29.56886802 44.85892285 5.93774622
X -28.05734540 31.88517709 -56.24334347
X -6.40291260 29.01011948 9.30396366
X -16.76304282 14.75060781 -25.94744255
X -23.16595542 49.51091115 5.93774414
X -38.41747561 21.78657263 3.36620063
X -42.37469323 69.21704571 -3.36624128
X -39.35164797 29.80475485 -33.47452447
X -25.61165041 10.89327663 -20.00967458
X -39.92899824 4.65196735 -46.93935470
X -8.84860759 58.32374218 -43.57316829
X -42.37469323 47.43047050 -12.48261569
X -13.73999756 12.17904255 -46.93935805
X 7.91443523 39.41226317 -31.88521981
X -59.13773605 39.41225645 -46.93937022
X -12.80582520 70.50281241 -28.51902334
X -15.25152019 34.45676411 13.46482606
X -0.93417236 36.53717965 -24.35814334
X -3.37986735 19.70612111 -39.41228621
X -35.03760827 39.90339116 -21.78658894
X -34.46025800 12.17905263 -24.35813245
X -39.92899824 15.54526750 -14.25950287
X -16.76304282 69.21703562 -25.94746687
X -32.01456301 31.58166971 -3.36622447
X -10.36013022 27.72433437 -6.73243311
X -40.86317060 45.35003579 -17.62572654
X -44.82038822 33.17097644 -8.32174448
X -23.16595542 25.15277246 -20.19727342
X -0.93417236 47.43047723 2.57153471
X -2.44569499 67.13660170 -29.31367630
X -8.84860759 33.96560766 -60.40420923
X -35.03760827 23.86698895 -32.67986735
X -6.40291260 50.79667708 -20.99193934
X -40.86317060 16.83103837 -30.10830831
X -24.67747805 40.69805084 -10.09864927
X -16.76304282 12.17906014 -7.52708064
X -15.25152019 34.45674573 -27.72435277
X -8.84860759 62.48461675 -21.78659903
X -7.33708496 30.29587531 -40.20694541
X -35.97178063 19.40260284 -10.89329422
X -14.31734783 30.59940030 -53.67178700
X -33.52608564 48.71624651 -16.83107357
X -27.12317304 46.63581259 -20.19728301
X -32.01456301 23.86699647 -15.84881553
X -29.56886802 23.07233182 -38.61763325
X -55.18051843 65.05617787 -10.09866014
X -7.33708496 38.61762108 -4.16088208
X -0.93417236 43.26960939 -4.16088416
X 7.91443523 37.82296139 -15.84882176
X -16.76304282 18.91148238 -4.16087328
X -38.41747561 -0.00001345 -30.10830080
X -21.65443279 10.58975005 -10.09863582
X -44.82038822 30.59940030 -53.67178700
X -39.92899824 44.06425820 -16.83107149
X -42.37469323 40.69803661 -41.98385148
X -21.65443279 44.85890445 -35.25143261
X 3.02304526 52.87711852 -0.79467809
X -40.86317060 60.40418283 -25.15280846
X -32.94873537 29.31362686 -43.57315533
X -34.46025800 51.59133756 -7.52709823
X -44.82038822 8.81284606 -15.84880881
X -24.10012778 52.38598717 -18.42038416
X -12.80582520 55.44866202 -28.51901662
X -8.84860759 38.12649310 -14.25951295
X -35.97178063 57.83262508 -29.31367215
X -28.99151776 30.59940782 -36.84073519
X -42.37469323 65.05616777 -32.67988574
X -15.25152019 18.42035855 -4.95552754
X -36.90595299 33.17097644 -8.32174448
X -37.48330326 36.53718300 -16.83106814
X -22.58860515 41.98382508 -18.42037952
X -25.61165041 59.60953659 -6.73244735
X -21.65443279 14.75061117 -18.42036735
X -24.10012778 48.22511260 -40.20695343
X 3.95721762 33.96561853 -36.04608221
X -31.08039065 38.61761693 -13.46485870
X -38.41747561 67.93125467 -32.67988702
X -35.97178063 31.88520637 9.30396238
X -15.25152019 31.88519133 -24.35814126
X -35.03760827 39.90338443 -36.84073935
X -29.56886802 66.64549132 -0.00002976
X -32.01456301 37.33183261 -27.72435405
X -24.10012778 24.84923740 -29.31365743
X -24.10012778 12.97371647 -3.36621615
X -20.14291017 41.18916538 -30.10831919
X -29.56886802 20.50078159 -25.94744512
X -39.92899824 19.70613871 -0.00000880
X -15.82887046 35.25139949 -29.31366207
X -21.65443279 42.28734670 -39.41229630
X -39.92899824 54.95754155 -21.78659567
X -3.37986735 42.47494219 -32.67987565
X -39.92899824 26.43855758 -4.16087664
X -25.61165041 32.67985261 -9.11639874
X -15.25152019 36.04607006 6.73240463
X -43.88621586 42.77848477 -6.73243983
X -28.05734540 51.10021294 -10.09865391
X -44.82038822 -2.08043728 -10.89328464
X -17.69721518 43.57313774 -10.09865055
X -3.37986735 41.49270461 -11.68795856
X -22.58860515 21.78655503 -36.04607678
X -16.76304282 23.07235022 2.57154558
X -11.29430258 29.01009436 -46.93936557
X -25.61165041 17.62570478 -3.36621824
X -26.54582277 47.43047050 -12.48261569
X -50.28912846 29.80475485 -33.47452447
X -39.92899824 26.43853246 -60.40420588
X -44.82038822 61.68995627 -35.25144013
X -25.61165041 43.57313774 -10.09865055
X -8.84860759 23.07233934 -21.78658142
X -2.44569499 36.04604494 -49.51092460
X -24.10012778 54.95754492 -14.25952047
X 7.91443523 52.87710091 -40.20695550
X -29.56886802 14.75061453 -10.89329215
X -29.56886802 42.28735679 -16.83107070
X -38.41747561 46.14468620 -26.74211104
X -50.28912846 38.12649646 -6.73243776
X -21.65443279 32.37630171 -53.67178780
X -3.95721762 16.33992047 -17.62571358
X -11.29430258 26.43855758 -4.16087664
X -46.33191084 26.92967132 -25.94744799
X -40.86317060 27.72432428 -29.31365870
X -43.88621586 36.04605582 -25.15279759
X -34.46025800 32.37631675 -20.00968416
X -26.54582277 32.37632268 -6.73243518
X -47.84343347 22.27767214 -50.30557292
X -27.12317304 44.06427324 16.83103214
X -47.26608320 29.80476493 -10.89329887
X -43.88621586 27.72432093 -36.84073390
X -36.90595299 15.54526078 -29.31365327
X -39.92899824 37.33183341 -25.94745264
X -25.61165041 55.44866202 -28.51901662
X -42.37469323 54.16287771 -42.77851197
X -9.78277995 41.98382844 -10.89330432
X -22.23178306 50.79668459 -4.16088753
X -2.44569499 42.77847805 -21.78659022
X -23.16595542 52.08245803 -14.25951919
X -37.48330326 44.85890861 -25.94745599
X -27.12317304 29.01011197 -7.52708816
X -29.56886802 28.21544811 -28.51900445
X -24.67747805 16.33992047 -17.62571358
X -28.05734540 45.35004667 6.73240047
X -19.20873781 2.08043056 -4.16086577
X -44.82038822 39.90339452 -14.25951375
X -25.61165041 24.35812781 1.77689054
X -21.65443279 62.48462427 -4.95554721
X -23.16595542 38.61762188 -2.38398066
X -12.80582520 26.92967547 -16.64347137
X -15.25152019 42.77849228 10.09861198
X 1.51152263 30.59941790 -14.25950959
X -24.10012778 33.17095805 -49.51092332
X -33.52608564 24.35810941 -39.41228829
X 3.95721762 12.17905342 -22.58123103
X -14.31734783 19.70612862 -22.58123440
X -35.97178063 56.24331499 -31.88522733
X -35.97178063 11.68793296 -15.84881009
X -19.20873781 22.27768637 -18.42037072
X -20.72026044 35.25140364 -20.00968545
X -32.01456301 59.11841612 -0.00002640
X -24.10012778 48.22512269 -17.62572782
X -8.84860759 40.69805836 6.73240255
X -20.72026044 32.67984846 -18.42037536
X -46.33191084 31.09053837 -20.99193054
X -38.41747561 20.19725581 -14.25950495
X -38.41747561 50.30554909 -31.09057021
X -42.37469323 29.80475485 -33.47452447
X -39.92899824 35.74253083 -11.68795600
X -35.97178063 42.77848556 -4.95553841
X -19.20873781 61.68995627 -35.25144013
X -37.48330326 47.43045963 -36.84074270
X -18.27456545 45.35004331 -0.79467473
X -48.77760583 14.25948655 -20.99192302
X -40.86317060 23.56346060 -26.74210096
X -30.50304038 48.71625403 -0.00002176
X -16.18569255 30.59942126 -6.73243439
X -32.01456301 59.11840604 -22.58125200
X -35.97178063 31.88519549 -15.05416463
X -48.77760583 14.25948991 -13.46484783
X -38.41747561 36.84070878 -28.51900830
X -15.25152019 10.09861870 -27.72434189
X -19.20873781 15.54526493 -20.00967665
X -24.10012778 33.17096220 -40.20694670
X -40.86317060 62.97573386 -36.04609517
X -40.86317060 30.29588282 -23.37589360
X -12.80582520 20.19724909 -29.31365534
X -47.84343347 35.74252668 -20.99193261
X -23.16595542 19.40259611 -25.94744463
X -21.65443279 29.80477581 13.46482814
X -11.87165285 23.07233934 -21.78658142
X -32.01456301 18.11681932 -23.37588816
X -6.40291260 35.74253083 -11.68795600
X -34.46025800 44.85891117 -20.19728221
X -19.20873781 49.81441854 -46.93937486
X -33.52608564 41.98383932 13.46482270
X -24.67747805 29.80475821 -25.94744927
X -15.25152019 52.08245466 -21.78659438
X -30.50304038 37.82296059 -17.62572318
X -28.99151776 46.63582011 -3.36623119
X -20.14291017 16.83104094 -24.35813454
X -54.24634608 46.14469628 -4.16088544
X -28.99151776 44.06425228 -30.10832048
X -8.84860759 16.33991790 -23.37588737
X -12.80582520 33.66209355 -22.58124063
X -44.82038822 2.08043056 -4.16086577
X -31.08039065 36.04605918 -17.62572238
X -0.93417236 31.39406751 -25.15279550
X -20.72026044 31.09053500 -28.51900573
X -25.61165041 46.14469371 -9.91105923
X 0.00000000 24.35812702 -0.00001088
X -25.61165041 13.46482943 -26.92968892
X -34.46025800 54.16288106 -35.25143677
X -21.65443279 28.21545900 -4.16087743
X -39.35164797 33.96562525 -20.99193182
X -6.40291260 54.95753820 -29.31367087
X -8.84860759 25.64390460 -0.79466593
X -21.65443279 36.53717628 -31.88521853
X -19.20873781 61.68994955 -50.30559053
X -46.33191084 59.60952314 -36.84074815
X -23.16595542 41.18917883 -0.00001840
X -40.86317060 46.93934509 -16.83107278
X -4.89138997 6.73240463 -36.04607006
X -38.41747561 37.82295052 -40.20694878
X -28.05734540 30.29588282 -23.37589360
X -40.86317060 49.51089691 -25.94745807
X -63.09495366 27.23319294 -46.93936477
X 0.00000000 31.09053580 -26.74210431
X -32.01456301 4.65197822 -22.58122767
X -13.73999756 25.64388957 -34.45676956
X -44.82038822 4.65198494 -7.52707728
X -11.29430258 35.74252411 -26.74210640
X -4.89138997 35.25139533 -38.61763868
X -35.97178063 19.40260620 -3.36621903
X -24.10012778 65.85082826 -19.21504464
X -23.16595542 49.51090443 -9.11640625
X -8.84860759 44.85890109 -42.77850781
X -32.94873537 49.51090700 -3.36623248
X 0.00000000 70.50281914 -13.46487294
X -15.25152019 29.31364110 -11.68795313
X -34.46025800 33.96562862 -13.46485663
X -16.18569255 33.17096892 -25.15279631
X -40.86317060 56.24332171 -16.83107694
X -24.67747805 23.07233261 -36.84073183
X -16.18569255 19.70611775 -46.93936141
X -43.88621586 37.02831099 -6.73243727
X -47.26608320 32.37632347 -4.95553377
X -25.61165041 66.34194457 -35.25144221
X -12.80582520 52.87710684 -26.92970652
X -19.20873781 50.79668123 -11.68796272
X -25.61165041 39.41227820 1.77688381
X -28.05734540 36.04605661 -23.37589617
X -31.08039065 20.99190206 -32.67986606
X -3.95721762 25.64390460 -0.79466593
X -13.73999756 39.10873482 -25.94745343
X -23.16595542 42.77848477 -6.73243983
X -7.33708496 22.58121887 -15.05416048
X -29.56886802 55.75219867 -15.84882977
X -32.01456301 37.33183756 -16.64347602
X -11.29430258 44.06425980 -13.27726866
X -31.08039065 27.72431677 -46.14471052
X -31.08039065 49.51090779 -1.58933106
X -4.89138997 6.73240127 -43.57314526
X -41.44052087 43.57313853 -8.32174913
X -19.20873781 41.49270461 -11.68795856
X -37.48330326 36.53716955 -46.93936893
X -2.44569499 45.35003916 -10.09865135
X -22.58860515 46.14468620 -26.74211104
X -44.82038822 19.70613535 -7.52708400
X -15.25152019 36.04605661 -23.37589617
X -33.52608564 54.46641437 -30.10832512
X -34.46025800 65.05616777 -32.67988574
X -19.20873781 72.58325306 -10.09866351
X -15.25152019 49.51090028 -18.42038287
X -39.92899824 35.74251995 -36.04608302
X 7.91443523 48.71624395 -22.58124736
X -21.65443279 31.39406751 -25.15279550
X -38.41747561 59.60953659 -6.73244735
X -10.36013022 31.88519549 -15.05416463
X -8.84860759 12.17906351 -0.00000544
X -48.77760583 3.36620735 -6.73242223
X -24.67747805 23.07233934 -21.78658142
X -24.67747805 47.43045963 -36.84074270
X -36.90595299 33.17096220 -40.20694670
X -48.77760583 23.56346060 -26.74210096
X -30.50304038 10.89327919 -14.25950079
X -7.33708496 41.18917132 -16.83107021
X -25.61165041 17.62569054 -35.25142045
X -56.69204106 45.35003995 -8.32174993
X -20.14291017 40.20692702 -10.89330351
X -41.44052087 33.66208940 -31.88521725
X -25.61165041 43.57312686 -34.45677756
X -39.92899824 48.22511933 -25.15280302
X -13.73999756 38.12648301 -36.84073855
X -38.41747561 17.62568382 -50.30557085
X 3.95721762 36.53718380 -15.05416672
X -8.84860759 58.32374970 -26.74211648
X -43.88621586 23.56346653 -13.46485198
X -63.09495366 27.23320303 -24.35813918
X -29.56886802 5.44663119 -25.94743840
X -25.61165041 13.46484446 6.73241471
X 3.02304526 24.35810605 -46.93936349
X -17.69721518 57.03797884 -10.89331103
X -20.72026044 37.82297148 6.73240383
X -24.67747805 18.91146813 -36.04607550
X -39.92899824 35.74253755 3.36619439
X -36.90595299 41.49269037 -43.57316078
X -19.20873781 23.86699903 -10.09864175
X -40.86317060 40.20691278 -42.77850573
X -19.20873781 -2.08043728 -10.89328464
X -12.80582520 59.60952570 -31.09057437
X -48.77760583 38.61761436 -19.21503248
X -51.22330082 41.98382844 -10.89330432
X -17.69721518 10.89327919 -14.25950079
X -32.01456301 52.38598380 -25.94745936
X -19.20873781 2.08042720 -11.68794096
X -22.23178306 23.86699566 -17.62571695
X -16.18569255 42.47493882 -40.20695086
X -23.16595542 46.93933837 -31.88522318
X -55.18051843 16.33991711 -25.15278878
X -35.97178063 46.93934589 -15.05417136
X -43.88621586 42.77848141 -14.25951503
X -24.10012778 41.49269374 -36.04608558
X -15.25152019 51.10020958 -17.62572911
X 3.95721762 12.17905679 -15.05415584
X -23.16595542 45.35001820 -57.03800396
X -28.05734540 38.61762188 -2.38398066
X -55.18051843 40.69804412 -25.15279966
X -7.91443523 24.35812365 -7.52708608
X -37.48330326 51.59133835 -5.75019682
X -25.61165041 -1.58932690 -40.20693118
X -32.01456301 12.97371727 -1.58931474
X -40.86317060 60.40417947 -32.67988366
X -4.89138997 15.05413695 -30.10830752
X -34.46025800 38.12647550 -53.67179037
X -19.20873781 19.70613950 1.77689262
X -19.20873781 46.63582011 -3.36623119
X 1.51152263 19.70611775 -46.93936141
X -24.67747805 43.26960603 -11.68795936
X -24.10012778 57.52908922 -40.20695758
X -50.28912846 39.10873146 -33.47452862
X -12.80582520 20.19725325 -20.00967873
X -39.92899824 22.27769310 -3.36622031
X -17.69721518 43.57313517 -15.84882433
X -52.73482345 30.59941454 -21.78658479
X -41.44052087 33.66208603 -39.41229244
X 1.51152263 44.06424476 -46.93937229
X -20.72026044 52.87711436 -10.09865470
X 0.00000000 57.03796796 -35.25143805
X 7.91443523 24.35811693 -22.58123647
X -44.82038822 19.70613198 -15.05415920
X -6.40291260 15.54527502 2.57154895
X -21.65443279 56.73443545 -38.61764828
X -21.65443279 23.07233934 -21.78658142
X -39.92899824 52.38598380 -25.94745936
X -4.89138997 31.09054925 3.36619648
X -20.72026044 28.51896974 -49.51092124
X -19.20873781 44.06425564 -22.58124527
X -34.46025800 49.01977229 -28.51901374
X -27.12317304 46.63580666 -33.47453199
X -23.16595542 20.99191966 6.73241135
X -18.27456545 34.45674315 -33.47452655
X -23.16595542 56.24332922 -0.00002512
X -38.41747561 10.89327999 -12.48259937
X -27.12317304 45.65357166 -6.73244111
X -16.18569255 50.79668795 3.36618767
X -50.28912846 36.53717707 -30.10831711
X -11.29430258 29.01010108 -31.88521517
X 1.51152263 50.79667371 -28.51901453
X -28.05734540 42.77848141 -14.25951503
X -47.84343347 28.02785343 -33.47452367
X -2.44569499 36.04606254 -10.09864719
X -42.37469323 55.75219788 -17.62573119
X -44.82038822 52.38598637 -20.19728557
X -2.44569499 40.20691950 -27.72435534
X -52.73482345 29.01010860 -15.05416335
X -16.76304282 58.32374218 -43.57316829
X -12.80582520 2.57154094 -33.47451231
X -20.72026044 44.55537274 -36.84074142
X -17.69721518 41.98382587 -16.64347809
X -13.73999756 33.96562190 -28.51900702
X -16.76304282 33.96561853 -36.04608221
X -20.72026044 15.05415039 -0.00000672
X -28.05734540 58.81486938 -35.25143884
X -27.12317304 23.86700655 6.73241007
X -2.44569499 31.88519212 -22.58123984
X -8.84860759 27.23320045 -30.10831296
X -19.20873781 24.84923403 -36.84073262
X -4.89138997 41.98381084 -50.30558173
X -39.92899824 42.47494891 -17.62572526
X 5.46874024 20.99190206 -32.67986606
X -18.27456545 45.35003916 -10.09865135
X -28.05734540 23.56345981 -28.51900238
X -17.69721518 50.30555325 -21.78659359
X -36.90595299 46.63581675 -10.89330639
X -37.48330326 18.91146477 -43.57315069
X 1.51152263 50.79666699 -43.57316494
X -28.99151776 50.79668795 3.36618767
X -4.89138997 35.25140701 -12.48261025
X -51.22330082 43.57313022 -26.92970237
X -24.10012778 39.90338028 -46.14471596
X -7.33708496 22.58121215 -30.10831088
X -24.10012778 39.90339036 -23.56349036
X -14.31734783 34.76026815 -46.93936813
X -16.76304282 16.33992047 -17.62571358
X -30.50304038 44.55538283 -14.25951582
X -21.65443279 31.39407839 -0.79466850
X -38.41747561 74.66367690 -29.31367967
X -33.52608564 24.35811693 -22.58123647
X -16.76304282 33.96563614 3.36619520
X -56.69204106 36.04605582 -25.15279759
X -42.37469323 44.85891117 -20.19728221
X -48.77760583 25.15277998 -3.36622159
X -29.56886802 38.12648301 -36.84073855
X -25.61165041 37.82297148 6.73240383
X 7.91443523 52.87711100 -17.62572991
X -34.46025800 42.28735342 -24.35814590
X -23.16595542 3.36620063 -21.78657263
X -10.36013022 46.93933165 -46.93937357
X -28.63469567 21.78656175 -20.99192638
X 5.46874024 29.31362686 -43.57315533
X -51.22330082 57.03796796 -35.25143805
X -23.16595542 -0.79467394 -43.57314190
X -48.77760583 42.77847389 -31.09056685
X -11.29430258 41.49270125 -19.21503377
X -27.12317304 50.79667451 -26.74211311
X 3.02304526 44.55537611 -29.31366622
X -46.33191084 32.67985518 -3.36622496
X -32.01456301 72.58325306 -10.09866351
X -32.01456301 34.76028910 -0.00001552
X -17.69721518 43.57313102 -25.15280095
X 1.51152263 19.70613535 -7.52708400
X -26.54582277 58.32375306 -19.21504128
X -20.14291017 41.18917883 -0.00001840
X -11.87165285 29.80475485 -33.47452447
X -48.77760583 34.45676411 13.46482606
X -35.97178063 34.45676076 5.93775086
X -33.52608564 26.92967804 -10.89329759
X -30.50304038 41.98383181 -3.36622911
X -35.97178063 34.45676411 13.46482606
X -32.01456301 61.68996042 -25.94746351
X -47.26608320 12.17905006 -30.10830624
X -52.73482345 44.06425820 -16.83107149
X -29.56886802 51.59132668 -31.88522526
X -48.77760583 31.88519212 -22.58123984
X -35.97178063 41.18916538 -30.10831919
X -17.69721518 25.94742287 -29.31365792
X -34.46025800 40.69803997 -34.45677628
X -28.63469567 28.51897390 -40.20694463
X -34.46025800 1.28577343 -10.09863166
X -12.80582520 57.03796460 -42.77851325
X -3.95721762 5.44663119 -25.94743840
X -8.84860759 36.53718300 -16.83106814
X -51.22330082 35.25139613 -36.84073726
X -32.01456301 15.54526493 -20.00967665
X -35.97178063 25.15277405 -16.64347057
X -18.27456545 18.42035103 -21.78657935
X -19.20873781 28.02785343 -33.47452367
X -17.69721518 21.78655839 -28.51900158
X -32.01456301 44.06423725 -63.77042411
X 7.91443523 21.78655166 -43.57315198
X -24.67747805 25.64389709 -17.62571774
X -48.77760583 31.88519549 -15.05416463
X -8.84860759 36.53718716 -7.52709152
X -35.97178063 31.88518382 -41.18919307
X -15.25152019 16.83104846 -7.52708271
X -27.12317304 11.38439294 -36.04607214
X 1.51152263 22.27768301 -25.94744591
X -21.65443279 39.10872731 -42.77850524
X -46.33191084 32.67984846 -18.42037536
X -32.01456301 23.86699566 -17.62571695
X -20.14291017 49.51090363 -10.89330767
X -16.18569255 33.17097565 -10.09864590
X -47.26608320 27.23319630 -39.41228958
X -21.65443279 38.12648223 -38.61763997
X -34.46025800 33.96562605 -19.21503040
X -35.97178063 57.83262172 -36.84074735
X -29.56886802 38.12647550 -53.67179037
X -19.20873781 65.85082747 -20.99194606
X -16.76304282 36.53717707 -30.10831711
X -11.29430258 24.84923740 -29.31365743
X -24.10012778 19.70612447 -31.88521101
X -42.37469323 55.75218780 -40.20695678
X -55.18051843 33.96562862 -13.46485663
X -23.16595542 53.67176812 -11.68796400
X -29.56886802 42.28736430 -0.00001889
X -16.76304282 62.48462012 -14.25952383
X -31.08039065 27.72432093 -36.84073390
X -19.20873781 59.11841276 -7.52710160
X -18.27456545 25.15276911 -27.72434862
X -43.88621586 14.25948319 -28.51899822
X -29.56886802 28.21545148 -20.99192926
X -19.20873781 52.38599053 -10.89330896
X -27.12317304 19.70613198 -15.05415920
X -25.61165041 33.66209612 -16.83106685
X -13.73999756 35.55493871 -10.89330144
X -21.65443279 65.05616442 -40.20696094
X -33.52608564 9.30396910 -16.83105597
X -12.80582520 41.98382171 -25.94745471
X -19.20873781 53.36822810 -31.88522605
X -39.92899824 44.06426572 -0.00001968
X -23.16595542 37.02830762 -14.25951246
X -28.05734540 38.61760941 -30.29591051
X -6.40291260 48.22511933 -25.15280302
X -32.01456301 42.47494554 -25.15280046
X -32.94873537 45.35003579 -17.62572654
X -6.40291260 8.81284271 -23.37588400
X -12.80582520 6.73241215 -19.21501824
X -52.73482345 50.79667035 -36.04608974
X -12.80582520 61.19883916 -20.99194398
X -32.01456301 44.06425900 -15.05417008
X -37.48330326 25.64390045 -10.09864255
X -33.52608564 46.14468876 -20.99193726
X -10.36013022 36.04605582 -25.15279759
X -34.46025800 29.80476829 -3.36622368
X -19.20873781 48.22511517 -34.45677965
X -59.13773605 21.78656175 -20.99192638
X -29.56886802 12.17906014 -7.52708064
X -18.27456545 38.61760684 -36.04608430
X -19.20873781 33.17098316 6.73240591
X -21.65443279 51.59133004 -24.35815006
X 1.51152263 35.74252411 -26.74210640
X -6.40291260 50.79668123 -11.68796272
X -32.94873537 56.24332587 -7.52710032
X -26.54582277 47.43046971 -14.25951711
X -42.37469323 27.23320718 -15.05416256
X -24.67747805 32.37631932 -14.25951039
X -27.12317304 54.95754828 -6.73244527
X -32.01456301 15.54527166 -4.95552625
X -30.50304038 59.60952314 -36.84074815
X -29.56886802 33.96564365 20.19724701
X -8.84860759 21.48303340 -15.05415999
X -8.84860759 44.85889772 -50.30558301
X -38.41747561 25.94741951 -36.84073311
X -67.05217128 21.78656511 -13.46485118
X -32.01456301 54.95753403 -38.61764749
X -2.44569499 36.04604158 -57.03799980
X -4.89138997 57.03797212 -25.94746144
X -10.36013022 25.15277326 -18.42037200
X -6.40291260 44.06425900 -15.05417008
X -38.41747561 -4.16087792 -29.31364447
X -20.72026044 6.73240127 -43.57314526
X -20.14291017 41.18917211 -15.05416879
X -47.84343347 50.79667451 -26.74211311
X -32.01456301 33.17096557 -32.67987150
X -21.65443279 44.85890109 -42.77850781
X -11.29430258 30.59941533 -20.00968337
X -11.87165285 47.43046299 -29.31366750
X -17.69721518 37.82296059 -17.62572318
X -3.95721762 5.44663792 -10.89328799
X -19.20873781 22.27768557 -20.19727212
X 3.95721762 29.80476157 -18.42037407
X -35.97178063 47.92158682 -28.51901325
X -17.69721518 32.67983422 -50.30557757
X -29.56886802 44.85891612 -9.11640418
X -2.44569499 36.04604830 -41.98384940
X -28.05734540 29.31363023 -36.04608014
X -25.61165041 28.51898062 -25.15279422
X -56.69204106 27.72433437 -6.73243311
X -33.52608564 29.50122235 -36.84073470
X -10.36013022 34.45676076 5.93775086
X -24.10012778 57.52909594 -25.15280718
X -21.65443279 33.96562862 -13.46485663
X -28.05734540 31.88518382 -41.18919307
X -7.33708496 30.29588876 -10.09864462
X -26.54582277 50.00201402 -40.20695421
X -54.24634608 28.51898734 -10.09864383
X -21.65443279 1.28576335 -32.67985726
X -42.37469323 65.05617787 -10.09866014
X -12.80582520 35.25140957 -6.73243647
X -47.84343347 41.49270798 -4.16088337
X -20.72026044 35.25139613 -36.84073726
X -27.12317304 54.95753483 -36.84074607
X -29.56886802 38.12649389 -12.48261153
X -16.76304282 32.37632268 -6.73243518
X -20.14291017 30.29587531 -40.20694541
X -29.56886802 23.07234270 -14.25950623
X -8.84860759 55.75218780 -40.20695678
X -28.05734540 47.92158346 -36.04608845
X -29.56886802 29.80476157 -18.42037407
X -34.46025800 44.85890861 -25.94745599
X -23.16595542 42.77847725 -23.56349164
X -9.78277995 20.19725165 -23.56348156
X -29.56886802 60.89530330 -31.88522941
X -40.86317060 20.99191630 -0.79466385
X -32.01456301 76.74411082 -25.94747023
X -18.27456545 18.42034431 -36.84072975
X -59.13773605 32.67983422 -50.30557757
X -3.37986735 23.86699566 -17.62571695
X -25.61165041 31.09053421 -30.29590716
X -20.14291017 45.35003323 -23.37590032
X -20.72026044 28.51898142 -23.37589280
X -26.54582277 36.53718044 -22.58124191
X -29.56886802 58.32375563 -13.46486750
X -14.31734783 48.22512604 -10.09865262
X -48.77760583 23.56347405 3.36619984
X -36.90595299 57.52908922 -40.20695758
X -2.44569499 34.45675739 -1.58932433
X -27.12317304 26.43856094 3.36619855
X -12.80582520 41.98382844 -10.89330432
X -35.97178063 29.31364031 -13.46485454
X -51.22330082 39.41225645 -46.93937022
X -21.65443279 24.66164943 -19.21502625
X -20.72026044 46.14469212 -13.46486206
X -9.78277995 41.98383181 -3.36622911
X -63.09495366 47.43046971 -14.25951711
X -43.30886559 32.67984766 -20.19727677
X -59.13773605 39.41226653 -24.35814461
X -39.92899824 48.22512012 -23.37590161
X -10.36013022 56.24332250 -15.05417551
X -13.73999756 44.85892621 13.46482142
X -43.88621586 38.61761357 -20.99193390
X -47.26608320 5.44663455 -18.42036319
X -19.20873781 11.38439709 -26.74209552
X -2.44569499 41.18917211 -15.05416879
X -2.44569499 49.51090028 -18.42038287
X -38.41747561 16.03639885 3.36620320
X -51.22330082 52.87710091 -40.20695550
X -9.78277995 46.14468956 -19.21503584
X -13.73999756 18.91146477 -43.57315069
X -41.44052087 26.92966044 -50.30557500
X 3.95721762 43.26960266 -19.21503456
X -21.65443279 44.85889772 -50.30558301
X -32.01456301 26.43854590 -30.29590508
X -24.10012778 33.17097644 -8.32174448
X -6.40291260 54.95754828 -6.73244527
X -43.30886559 46.14469212 -13.46486206
X -20.14291017 42.77847468 -29.31366543
X -35.97178063 47.92159354 -13.46486286
X -23.16595542 34.45674573 -27.72435277
X -59.13773605 31.09054925 3.36619648
X -31.08039065 36.04605245 -32.67987278
X -26.54582277 27.23320303 -24.35813918
X -20.72026044 48.71625403 -0.00002176
X -13.73999756 62.48463099 10.09860318
X -4.89138997 41.98382428 -20.19728093
X -24.10012778 11.38439966 -20.99192174
X -16.76304282 51.59133004 -24.35815006
X -43.30886559 39.41225982 -39.41229501
X -14.31734783 33.17097565 -10.09864590
X -20.72026044 15.05414368 -15.05415712
X -33.52608564 15.05414368 -15.05415712
X -19.20873781 48.22512604 -10.09865262
X -34.46025800 51.59134092 -0.00002304
X -40.86317060 46.93933501 -39.41229838
X -29.56886802 24.66165280 -11.68795105
X -35.97178063 7.52706175 -30.10830415
X -24.10012778 53.36822138 -46.93937645
X -15.25152019 45.35003164 -26.92970316
X 0.00000000 41.98382508 -18.42037952
X -16.76304282 62.48461339 -29.31367423
X -19.20873781 7.22353597 -18.42036399
X -47.84343347 26.43854670 -28.51900366
X -20.72026044 36.84070878 -28.51900830
X -11.29430258 15.54527087 -6.73242767
X -29.56886802 47.43046635 -21.78659231
X -36.90595299 19.70612111 -39.41228621
X -6.40291260 54.95752731 -53.67179788
X -8.84860759 1.28575999 -40.20693246
X -2.44569499 36.04605582 -25.15279759
X -2.44569499 27.72433437 -6.73243311
X -32.01456301 57.52908843 -41.98385900
X 3.95721762 40.69805084 -10.09864927
X -42.37469323 23.07234270 -14.25950623
X -55.18051843 51.59131996 -46.93937565
X -28.05734540 22.58121887 -15.05416048
X -50.28912846 23.07234270 -14.25950623
X -35.97178063 20.99191214 -10.09864046
X -12.80582520 52.87710012 -41.98385692
X -38.41747561 44.55537946 -21.78659103
X -16.76304282 23.07234013 -20.00968000
X -38.41747561 70.50281241 -28.51902334
X -12.80582520 39.41226238 -33.66212123
X -32.01456301 50.79667035 -36.04608974
X -17.69721518 17.62569806 -18.42036863
X -37.48330326 16.33991039 -40.20693918
X -44.82038822 37.33183598 -20.19727885
X -28.05734540 29.31364110 -11.68795313
X -25.61165041 22.76881020 -17.62571646
X -23.16595542 56.24331835 -24.35815213
X -9.78277995 33.66208603 -39.41229244
X -29.56886802 40.69805916 8.50930397
X -29.56886802 29.80475406 -35.25142589
X -11.29430258 23.86700655 6.73241007
X -32.01456301 19.70612782 -24.35813582
X -51.22330082 0.00000000 0.00000000
X -39.92899824 39.90338028 -46.14471596
X -10.36013022 14.25947983 -36.04607341
X -46.33191084 31.09053165 -36.04608093
X -25.61165041 22.76881435 -8.32173984
X -20.72026044 15.05414031 -22.58123232
X -16.76304282 12.17905342 -22.58123103
X -35.97178063 31.88519470 -16.83106606
X -25.61165041 43.57313853 -8.32174913
X -15.25152019 19.40260284 -10.89329422
X -10.36013022 56.24332171 -16.83107694
X -3.95721762 38.12647886 -46.14471517
X -23.16595542 27.72432844 -20.00968209
X -43.30886559 28.51898398 -17.62571903
X -11.29430258 18.11681853 -25.15278958
X -28.05734540 36.04605245 -32.67987278
X -35.97178063 31.88520973 16.83103757
X -26.54582277 18.91146813 -36.04607550
X -38.41747561 54.46642029 -16.83107614
X -19.20873781 35.74251995 -36.04608302
X -31.08039065 36.04605997 -15.84882097
X -21.65443279 12.17905599 -16.83105726
X -47.26608320 51.59133004 -24.35815006
X -15.25152019 20.99191214 -10.09864046
X -15.25152019 38.61760941 -30.29591051
X -8.84860759 25.64389452 -23.37589152
X -35.97178063 38.61760684 -36.04608430
X -29.56886802 12.17905342 -22.58123103
X -50.28912846 27.23320382 -22.58123776
X 0.00000000 28.51898062 -25.15279422
X -35.97178063 27.72432013 -38.61763532
X -21.65443279 28.21546235 3.36619776
X -11.87165285 16.33992047 -17.62571358
X -16.18569255 26.43855342 -13.46485326
X -24.67747805 58.32374970 -26.74211648
X -35.97178063 30.29587531 -40.20694541
X -27.12317304 8.81284527 -17.62571023
X -25.61165041 37.82295387 -32.67987358
X -51.22330082 31.09054588 -4.16087873
X -34.46025800 47.43045884 -38.61764412
X 11.87165285 47.43046971 -14.25951711
X -16.76304282 32.37633019 10.09861663
X -48.77760583 46.93933501 -39.41229838
X -12.80582520 15.05414368 -15.05415712
X -43.88621586 45.35003659 -15.84882512
X -25.61165041 37.82296059 -17.62572318
X -33.52608564 19.21501152 -8.32173825
X -46.33191084 17.62569806 -18.42036863
X -26.54582277 27.23320718 -15.05416256
X -36.90595299 37.33183004 -33.47452783
X -31.08039065 41.18917547 -7.52709359
X -21.65443279 33.96561853 -36.04608221
X -33.52608564 24.35810605 -46.93936349
X -38.41747561 2.57154767 -18.42036191
X -27.12317304 34.76027822 -24.35814254
X -20.72026044 24.35811949 -16.83106269
X -16.18569255 46.63580666 -33.47453199
X -13.73999756 34.94787034 -25.15279710
X -40.86317060 38.61761772 -11.68795728
X -24.67747805 47.43047723 2.57153471
X -13.73999756 27.23320718 -15.05416256
X -31.08039065 23.56346653 -13.46485198
X -21.65443279 25.64388621 -41.98384475
X -42.37469323 49.01977566 -20.99193855
X -11.29430258 30.59942126 -6.73243439
X -27.12317304 44.06425820 -16.83107149
X -32.01456301 50.79667451 -26.74211311
X -26.54582277 43.26959515 -36.04608637
X -28.05734540 25.15276654 -33.47452239
X -21.65443279 1.28577343 -10.09863166
X -4.89138997 17.62569806 -18.42036863
X 9.42595786 44.06425228 -30.10832048
X -0.93417236 27.23320303 -24.35813918
X -6.40291260 35.74253419 -4.16088080
X -19.20873781 44.06423725 -63.77042411
X -32.01456301 35.74251995 -36.04608302
X -9.78277995 50.30555740 -12.48261697
X -4.89138997 28.51896638 -57.03799644
X -28.05734540 49.51090443 -9.11640625
X 0.00000000 52.87711436 -10.09865470
X -34.46025800 23.07233854 -23.56348285
X -24.10012778 26.43854590 -30.29590508
X -39.92899824 59.11840604 -22.58125200
X -11.29430258 37.33183756 -16.64347602
X -20.14291017 53.67177484 3.36618639
X -38.41747561 48.71625403 -0.00002176
X -27.12317304 50.79668123 -11.68796272
X -9.78277995 17.62568719 -42.77849565
X -39.92899824 34.76027902 -22.58124112
X -28.99151776 19.70612111 -39.41228621
X -16.18569255 15.54526335 -23.56347949
X -0.93417236 39.10873482 -25.94745343
X -43.30886559 59.60952650 -29.31367295
X 7.91443523 35.25140621 -14.25951167
X -43.30886559 35.25140621 -14.25951167
X -25.61165041 -0.00001008 -22.58122560
X -19.20873781 50.79667451 -26.74211311
X -46.33191084 26.92966796 -33.47452318
X -15.25152019 34.45675067 -16.64347472
X -14.31734783 30.59941038 -31.09056141
X -10.36013022 42.77847389 -31.09056685
X -4.89138997 35.25139949 -29.31366207
X -27.12317304 54.95754155 -21.78659567
X -21.65443279 5.44663119 -25.94743840
X -46.33191084 21.78656255 -19.21502496
X -17.69721518 17.62569727 -20.19727005
X -12.80582520 22.76882108 6.73241056
X 1.51152263 23.86699231 -25.15279215
X -34.46025800 38.12647886 -46.14471517
X -44.82038822 37.33183004 -33.47452783
X -11.29430258 65.85082491 -26.74211984
X -3.37986735 23.86698559 -40.20694254
X -21.65443279 14.75059693 -50.30556956
X -30.50304038 26.92967132 -25.94744799
X -11.29430258 46.63581675 -10.89330639
X -25.61165041 48.71624058 -30.10832255
X -33.52608564 61.19884331 -11.68796737
X -40.86317060 42.77847132 -36.84074063
X -3.95721762 18.91147901 -11.68794848
X -43.88621586 34.45674236 -35.25142797
X -23.16595542 62.97573386 -36.04609517
X -8.84860759 9.60749567 -26.74209472
X 1.51152263 23.86698559 -40.20694254
X -44.82038822 8.81283855 -32.67986062
X -17.69721518 9.30395565 -46.93935677
X -56.69204106 41.18917547 -7.52709359
X -0.00000000 -0.00000672 -15.05415039
X -35.97178063 31.88518797 -31.88521646
X -9.78277995 52.87711515 -8.32175328
X -23.16595542 20.99191630 -0.79466385
X -25.61165041 67.93125467 -32.67988702
X -3.37986735 50.79668795 3.36618767
X -23.16595542 45.35003916 -10.09865135
X -25.61165041 46.14467869 -43.57316285
X -59.13773605 31.09054588 -4.16087873
X -41.44052087 50.30556412 2.57153343
X -32.94873537 25.15277663 -10.89329679
X -47.26608320 65.05616442 -40.20696094
X -55.18051843 47.43047308 -6.73244191
X -38.41747561 13.46483101 -23.37588608
X -7.33708496 10.09861198 -42.77849228
X -36.90595299 33.17096557 -32.67987150
X -48.77760583 67.13660170 -29.31367630
X -27.12317304 30.59940366 -46.14471180
X -3.95721762 27.23319630 -39.41228958
X -56.69204106 45.35003579 -17.62572654
X -26.54582277 16.33991039 -40.20693918
X -32.01456301 57.52909594 -25.15280718
X -56.69204106 31.88518461 -39.41229165
X -29.56886802 49.01977645 -19.21503713
X -36.90595299 57.52909258 -32.67988238
X -16.76304282 62.48461675 -21.78659903
X -32.01456301 37.33184349 -3.36622704
X -23.16595542 58.81486938 -35.25143884
X -4.89138997 52.87711179 -15.84882849
X -10.36013022 31.88519212 -22.58123984
X -12.80582520 39.41224893 -63.77042203
X -24.10012778 35.74251995 -36.04608302
X -23.16595542 34.45676076 5.93775086
X -17.69721518 21.78656927 -4.16087457
X -38.41747561 55.44865530 -43.57316701
X -16.76304282 43.26959179 -43.57316157
X -17.69721518 41.98382092 -27.72435613
X -24.67747805 44.85891196 -18.42038079
X -29.56886802 44.85890445 -35.25143261
X -20.14291017 20.99189790 -41.98384268
X -47.26608320 27.23319967 -31.88521437
X -25.61165041 43.57312429 -40.20695135
X -34.46025800 20.50078496 -18.42036991
X -51.22330082 -0.00001345 -30.10830080
X -46.33191084 39.41226317 -31.88521981
X -32.01456301 26.43854254 -37.82298028
X -3.37986735 28.02786351 -10.89329808
X -18.27456545 42.77847468 -29.31366543
X -16.76304282 60.89529993 -39.41230461
X -27.12317304 44.06425980 -13.27726866
X -59.13773605 31.09054252 -11.68795392
X -36.90595299 19.70612862 -22.58123440
X 3.95721762 40.69804412 -25.15279966
X -27.12317304 48.22513020 -0.79467601
X -39.92899824 45.65355821 -36.84074191
X -59.13773605 41.98382844 -10.89330432
X -21.65443279 40.69805836 6.73240255
X -25.61165041 16.03639548 -4.16087200
X -17.69721518 52.87711179 -15.84882849
X -14.31734783 33.17096557 -32.67987150
X -25.61165041 52.87712187 6.73239711
X -30.50304038 31.09054925 3.36619648
X -6.40291260 68.42237850 -31.88523277
X -2.44569499 7.52706847 -15.05415376
X -15.25152019 -0.79466721 -28.51899149
X -36.90595299 30.59940702 -38.61763660
X -20.14291017 20.99191214 -10.09864046
X -20.14291017 53.67177148 -4.16088880
X -51.22330082 59.60952650 -29.31367295
X -31.08039065 36.04607006 6.73240463
X -28.05734540 31.88519133 -24.35814126
X -4.89138997 28.51897646 -34.45677084
X -29.56886802 54.16288443 -27.72436157
X 3.02304526 48.71624395 -22.58124736
X -0.93417236 18.91147150 -28.51900029
X -19.20873781 8.81284606 -15.84880881
X -20.72026044 57.03797212 -25.94746144
X -17.69721518 37.82297148 6.73240383
X -25.61165041 4.16086112 -8.32173153
X -17.69721518 19.21501488 -0.79466305
X -22.23178306 19.70611775 -46.93936141
X -11.29430258 35.74253755 3.36619439
X -28.05734540 53.67176396 -20.99194062
X -4.89138997 26.92967468 -18.42037279
X -12.80582520 46.14469628 -4.16088544
X -23.16595542 20.99189117 -57.03799308
X 1.51152263 26.43854749 -26.74210224
X -0.93417236 16.33991039 -40.20693918
X -38.41747561 17.62569390 -27.72434525
X -29.56886802 43.26958763 -52.87713819
X -4.89138997 36.84070878 -28.51900830
X -30.50304038 36.84071550 -13.46485790
X -25.61165041 47.73399134 -35.25143389
X -35.97178063 16.83103757 -31.88520973
X -48.77760583 16.83104173 -22.58123312
X -63.09495366 23.07233934 -21.78658142
X 1.51152263 50.79667708 -20.99193934
X -6.40291260 19.70612862 -22.58123440
X 3.95721762 65.05617114 -25.15281055
X -26.54582277 23.07232510 -53.67178364
X -39.92899824 17.13457088 -26.74209808
X -52.73482345 33.17098316 6.73240591
X -29.56886802 43.26960266 -19.21503456
X -33.52608564 50.30556749 10.09860862
X -19.20873781 34.76027486 -31.88521774
X -8.84860759 9.60750240 -11.68794432
X -24.10012778 61.68996714 -10.89331311
X -42.37469323 44.85889772 -50.30558301
X -38.41747561 10.89327247 -29.31365119
X -40.86317060 42.77847389 -31.09056685
X -7.91443523 59.60953659 -6.73244735
X -20.14291017 20.99190126 -34.45676748
X -43.88621586 36.04606254 -10.09864719
X -42.37469323 29.80475406 -35.25142589
X -23.16595542 18.42035183 -20.00967793
X -20.72026044 41.98383181 -3.36622911
X -12.80582520 54.46641021 -39.41230173
X -43.88621586 20.99191214 -10.09864046
X -48.77760583 16.83104846 -7.52708271
X -32.01456301 6.24129168 -12.48259730
X -17.69721518 28.51896638 -57.03799644
X -29.56886802 49.01977901 -13.46486335
X -43.88621586 29.31363023 -36.04608014
X -12.80582520 24.35810941 -39.41228829
X -28.05734540 49.51091452 13.46481934
X 1.51152263 30.59940782 -36.84073519
X -12.80582520 31.09052828 -43.57315614
X -25.61165041 28.51898398 -17.62571903
X -21.65443279 51.59131996 -46.93937565
X -20.72026044 13.46482349 -40.20693790
X -7.33708496 34.45675660 -3.36622575
X -15.25152019 60.40418955 -10.09865807
X -52.73482345 30.59941038 -31.09056141
X -2.44569499 53.67175388 -43.57316622
X -35.39443036 21.78655839 -28.51900158
X -48.77760583 42.77847132 -36.84074063
X -31.08039065 30.29588876 -10.09864462
X -25.61165041 24.35813117 9.30396574
X -19.20873781 11.38440718 -4.16086992
X -51.22330082 48.71625403 -0.00002176
X -15.25152019 56.24331163 -39.41230254
X -42.37469323 58.32375306 -19.21504128
X -35.03760827 44.06426572 -0.00001968
X -17.69721518 39.41227069 -15.05416800
X -25.61165041 35.25141452 4.34844156
X -55.18051843 58.32375227 -20.99194270
X -3.95721762 65.05616442 -40.20696094
X -4.89138997 37.82295387 -32.67987358
X -20.72026044 24.35810605 -46.93936349
X -36.90595299 15.54527087 -6.73242767
X -13.73999756 25.64390045 -10.09864255
X -21.65443279 25.64389294 -26.92969436
X -12.80582520 70.50280569 -43.57317373
X -23.16595542 49.51090700 -3.36623248
X -18.27456545 27.72432765 -21.78658351
X -29.56886802 47.43046220 -31.09056892
X -46.33191084 21.78656927 -4.16087457
X -31.08039065 53.67176476 -19.21503920
X -10.36013022 20.99190206 -32.67986606
X -35.97178063 38.61760348 -43.57315949
X -15.25152019 23.56345308 -43.57315277
X -20.72026044 24.35812030 -15.05416128
X -13.73999756 18.91147486 -20.99192510
X -20.14291017 45.35003579 -17.62572654
X 1.51152263 19.70612862 -22.58123440
X -20.14291017 56.24331578 -30.10832591
X -24.10012778 26.43853246 -60.40420588
X -6.40291260 33.17096557 -32.67987150
X -28.05734540 60.40418619 -17.62573327
X -43.88621586 49.51091115 5.93774414
X -3.37986735 34.76028238 -15.05416593
X -27.12317304 39.90338364 -38.61764077
X -15.25152019 5.93774830 -40.20693453
X -19.20873781 44.06427324 16.83103214
X -34.46025800 39.10873146 -33.47452862
X -40.86317060 36.04604158 -57.03799980
X -6.40291260 2.08043056 -4.16086577
X -39.35164797 47.43046971 -14.25951711
X -27.12317304 65.85083836 3.36618096
X -16.76304282 62.48461003 -36.84074942
X 7.91443523 52.87710427 -32.67988030
X -48.77760583 10.09861950 -25.94744047
X -37.48330326 44.85891612 -9.11640418
X -2.44569499 31.88518877 -30.10831504
X -25.61165041 9.30397326 -7.52707936
X -19.20873781 41.49269630 -30.29591180
X -33.52608564 22.76880684 -25.15279166
X -23.16595542 44.36778399 -28.51901167
X -15.25152019 38.61762108 -4.16088208
X -15.25152019 60.40419034 -8.32175665
X -48.77760583 45.35004667 6.73240047
X -42.37469323 40.69804412 -25.15279966
X -2.44569499 42.77848477 -6.73243983
X -17.69721518 17.62569390 -27.72434525
X -19.20873781 4.65197071 -39.41227949
X -34.46025800 29.80476572 -9.11639745
X -15.25152019 3.36620735 -6.73242223
X -21.65443279 25.64390045 -10.09864255
X -16.76304282 32.37630923 -36.84073598
X -15.25152019 41.18917211 -15.05416879
X -11.29430258 33.17098316 6.73240591
X -29.56886802 14.75060444 -33.47451775
X -29.56886802 25.64387949 -57.03799516
X -15.25152019 53.67176061 -28.51901582
X -23.16595542 34.45674988 -18.42037615
X -41.44052087 25.94743295 -6.73243232
X -34.46025800 54.16288779 -20.19728636
X -13.73999756 31.39408174 6.73240670
X -20.14291017 31.88519470 -16.83106606
X -30.50304038 55.44865530 -43.57316701
X -13.73999756 36.53716955 -46.93936893
X -46.33191084 48.71623307 -46.93937437
X -47.84343347 30.59941790 -14.25950959
X -28.63469567 21.78656511 -13.46485118
X -39.92899824 15.54527087 -6.73242767
X 3.95721762 54.16289531 -3.36623455
X -17.69721518 36.84070878 -28.51900830
X -9.78277995 44.55538283 -14.25951582
X -33.52608564 21.78656511 -13.46485118
X -21.65443279 25.64389373 -25.15279294
X -48.77760583 38.61761693 -13.46485870
X -46.33191084 10.89326911 -36.84072639
X -67.05217128 48.71624058 -30.10832255
X 5.46874024 45.35003323 -23.37590032
X -32.01456301 18.11681853 -25.15278958
X -16.76304282 21.48302668 -30.10831039
X -8.84860759 5.44663792 -10.89328799
X -25.61165041 66.34194122 -42.77851741
X -52.73482345 33.17096972 -23.37589488
X -43.30886559 48.71624730 -15.05417216
X -7.33708496 49.51089355 -33.47453327
X -10.36013022 20.99191966 6.73241135
X -12.80582520 55.44865866 -36.04609181
X -48.77760583 49.51090363 -10.89330767
X -6.40291260 37.33183004 -33.47452783
X -16.76304282 31.39407087 -17.62572031
X -6.40291260 48.22510845 -49.51093004
X -24.10012778 39.90338700 -31.09056556
X -33.52608564 20.19724494 -38.61763196
X -17.69721518 48.71623643 -39.41229917
X 7.91443523 10.89327247 -29.31365119
X -34.46025800 8.01818557 -29.31364991
X -32.01456301 11.38439709 -26.74209552
X -14.31734783 29.01011532 -0.00001296
X -12.80582520 52.87710347 -34.45678172
X -25.61165041 31.09054668 -2.38397731
X -3.95721762 65.05617450 -17.62573534
X -23.16595542 14.25948398 -26.74209680
X -32.01456301 28.02786351 -10.89329808
X -26.54582277 51.59134092 -0.00002304
X -15.25152019 12.67017389 -29.31365198
X 1.51152263 44.06424812 -39.41229709
X -21.65443279 55.75219116 -32.67988158
X -0.93417236 54.16289195 -10.89330975
X -21.65443279 8.01818895 -21.78657470
X -20.14291017 29.31364447 -4.16087792
X -25.61165041 51.89486591 -13.46486463
X -37.48330326 45.84115290 -31.88522269
X -32.94873537 36.04605245 -32.67987278
X -17.69721518 24.35811614 -24.35813789
X -37.48330326 23.07234270 -14.25950623
X -29.56886802 51.59133499 -13.27727202
X -15.25152019 16.83103757 -31.88520973
X -29.56886802 32.37631932 -14.25951039
X -18.27456545 41.18916538 -30.10831919
X -55.18051843 44.85890109 -42.77850781
X -20.72026044 43.57313774 -10.09865055
X 11.87165285 23.07234606 -6.73243103
X -15.25152019 71.29746954 -22.58125743
X -42.37469323 40.69804828 -15.84882305
X -4.89138997 21.78656590 -11.68794976
X -11.29430258 30.59940782 -36.84073519
X -29.56886802 56.73443882 -31.09057307
X -20.14291017 20.99190878 -17.62571567
X -20.14291017 10.09860862 -50.30556749
X -4.89138997 37.82295724 -25.15279838
X -37.48330326 50.00202074 -25.15280382
X -35.03760827 30.59942126 -6.73243439
X -4.89138997 37.82296059 -17.62572318
X -34.46025800 51.59133340 -16.83107486
X -12.80582520 63.77039098 -30.10832928
X -13.73999756 14.75060702 -27.72434397
X -29.56886802 20.50077823 -33.47452032
X -11.29430258 19.70612111 -39.41228621
X -39.92899824 54.95754907 -4.95554385
X -28.05734540 51.10020958 -17.62572911
X -21.65443279 38.12649389 -12.48261153
X -34.46025800 38.12648223 -38.61763997
X -48.77760583 41.18917211 -15.05416879
X -23.16595542 20.99189454 -49.51091788
X -44.82038822 44.06424476 -46.93937229
X -7.33708496 27.72432428 -29.31365870
X -48.77760583 30.29588282 -23.37589360
X -25.61165041 18.60795323 -0.00000831
X -29.56886802 43.26960603 -11.68795936
X -29.56886802 47.43045548 -46.14471932
X -44.82038822 23.86698895 -32.67986735
X -21.65443279 33.96562110 -30.29590844
X -32.94873537 36.04605582 -25.15279759
X -32.01456301 24.84925164 2.57154479
X -30.50304038 17.62569390 -27.72434525
X -8.84860759 44.85891533 -10.89330560
X -10.36013022 20.99191214 -10.09864046
X -34.46025800 43.26960939 -4.16088416
X -3.95721762 27.23320303 -24.35813918
X 3.95721762 32.37631675 -20.00968416
X -21.65443279 25.64389452 -23.37589152
X -35.97178063 46.93934509 -16.83107278
X -56.69204106 27.72433101 -14.25950830
X -7.33708496 47.92159354 -13.46486286
X -14.31734783 30.59941118 -29.31365999
X -0.93417236 40.69804492 -23.37589824
X -11.29430258 53.36822474 -39.41230124
X -23.16595542 10.09862959 -3.36621487
X -35.97178063 16.83104173 -22.58123312
X -25.61165041 35.25142460 26.92966716
X -7.91443523 59.60953322 -14.25952254
X -38.41747561 52.87710763 -25.15280510
X 1.51152263 57.52909594 -25.15280718
X -15.25152019 37.02831099 -6.73243727
X -15.25152019 20.99189790 -41.98384268
X -29.56886802 33.96563693 5.14309661
X -19.20873781 13.95596156 -7.52708143
X -10.36013022 45.35004667 6.73240047
X -19.20873781 31.58166299 -18.42037487
X -9.78277995 13.46482270 -41.98383932
X -24.67747805 18.91147822 -13.46484990
X -16.76304282 47.43047388 -4.95554049
X -19.20873781 12.97370976 -18.42036656
X 3.95721762 40.69804077 -32.67987486
X -19.20873781 12.97372400 13.46483566
X -11.29430258 44.06426572 -0.00001968
X -15.25152019 26.13502171 -15.05416207
X -25.61165041 33.66208940 -31.88521725
X -39.35164797 27.23319630 -39.41228958
X -6.40291260 48.22510509 -57.03800524
X -22.58860515 52.87711515 -8.32175328
X -19.20873781 34.76027566 -30.10831632
X -4.89138997 17.62569727 -20.19727005
X -56.69204106 14.25947647 -43.57314861
X -63.09495366 29.80476829 -3.36622368
X -21.65443279 47.43047050 -12.48261569
X -11.29430258 54.95754155 -21.78659567
X 15.82887046 35.25140957 -6.73243647
X -29.56886802 43.26959772 -30.29591260
X -12.80582520 32.67984174 -33.47452576
X -28.05734540 38.61761436 -19.21503248
X -48.77760583 30.29589291 -0.79466800
X -44.82038822 33.17096557 -32.67987150
X -19.20873781 54.95753068 -46.14472269
X -56.69204106 36.04605245 -32.67987278
X -56.69204106 41.18917211 -15.05416879
X -6.40291260 11.38440046 -19.21502032
X -23.16595542 45.35002907 -32.67987694
X -40.86317060 36.04605582 -25.15279759
X -36.90595299 50.79668043 -13.46486414
X -35.97178063 53.67176139 -26.74211441
X -24.10012778 57.52910267 -10.09865679
X -28.05734540 45.35002907 -32.67987694
X -10.36013022 16.83103837 -30.10830831
X -4.89138997 28.51897390 -40.20694463
X -7.33708496 41.18916538 -30.10831919
X -39.92899824 54.95754492 -14.25952047
X -39.35164797 43.26960939 -4.16088416
X -38.41747561 48.71625067 -7.52709696
X -11.87165285 54.16289195 -10.89330975
X -38.41747561 61.19884253 -13.46486878
X -25.61165041 28.51898814 -8.32174241
X -19.20873781 23.86699231 -25.15279215
X -38.41747561 67.93125803 -25.15281183
X -13.73999756 28.21544475 -36.04607965
X -20.14291017 56.24332587 -7.52710032
X -2.44569499 16.83104846 -7.52708271
X -55.18051843 29.80476493 -10.89329887
X -43.88621586 27.72432349 -31.09056013
X -32.94873537 25.15276654 -33.47452239
X -28.05734540 62.97574058 -20.99194478
X -24.67747805 33.96561853 -36.04608221
X -21.65443279 62.48462763 2.57152799
X -15.25152019 41.18917132 -16.83107021
X -31.08039065 25.15277998 -3.36622159
X -8.84860759 18.91147822 -13.46484990
X -42.37469323 21.48303004 -22.58123519
X -23.16595542 49.51089276 -35.25143469
X -20.14291017 36.04606669 -0.79467057
X -31.08039065 25.15276574 -35.25142381
X -38.41747561 32.67984174 -33.47452576
X -23.16595542 18.42035776 -6.73242895
X -24.67747805 50.00202746 -10.09865342
X -42.37469323 8.01818895 -21.78657470
X -23.16595542 56.24332587 -7.52710032
X -19.20873781 24.84923740 -29.31365743
X 0.00000000 59.60952986 -21.78659775
X -8.84860759 33.96562605 -19.21503040
X -23.16595542 51.10020958 -17.62572911
X -33.52608564 31.09054588 -4.16087873
X -33.52608564 37.82295308 -34.45677500
X -56.69204106 25.15277246 -20.19727342
X -21.65443279 58.32374891 -28.51901790
X -44.82038822 11.38441054 3.36620528
X -38.41747561 10.89329007 10.09862622
X 3.02304526 39.41227069 -15.05416800
X -19.20873781 50.79666619 -45.35006636
X 5.46874024 25.15277998 -3.36622159
X -11.29430258 23.86699231 -25.15279215
X -33.52608564 32.67985934 5.93775166
X -23.16595542 38.61760684 -36.04608430
X -7.33708496 41.18915787 -46.93937101
X -17.69721518 26.92966044 -50.30557500
X -25.61165041 26.92968219 -1.58932097
X -15.25152019 37.02830427 -21.78658766
X -20.14291017 36.04605918 -17.62572238
X -32.01456301 56.54684077 -43.57316750
X -10.36013022 38.61761357 -20.99193390
X -38.41747561 35.25140957 -6.73243647
X -26.54582277 27.23321390 -0.00001216
X -14.31734783 8.81284191 -25.15278543
X -7.33708496 29.31363358 -28.51900494
X -19.20873781 57.52909258 -32.67988238
X -56.69204106 31.88520222 -0.00001424
X -23.16595542 46.93935261 -0.00002096
X -26.54582277 40.69804749 -17.62572447
X -25.61165041 20.19724909 -29.31365534
X -0.93417236 27.23320718 -15.05416256
X -32.01456301 19.70613614 -5.75018259
X -10.36013022 45.35003916 -10.09865135
X -42.37469323 44.85890109 -42.77850781
X -29.56886802 27.23320797 -13.27726114
X -7.33708496 22.58121551 -22.58123568
X -12.80582520 6.73241551 -11.68794304
X -25.61165041 37.82295644 -26.92969980
X -16.76304282 44.85891196 -18.42038079
X -46.33191084 24.35811278 -31.88521309
X -8.84860759 27.23321390 -0.00001216
X -2.44569499 41.18916538 -30.10831919
X -24.10012778 38.92113935 -32.67987407
X -28.63469567 52.87712187 6.73239711
X -27.12317304 65.85082491 -26.74211984
X -0.93417236 39.10874491 -3.36622783
X -38.41747561 36.84071550 -13.46485790
X -52.73482345 44.06424812 -39.41229709
X -40.86317060 45.35003916 -10.09865135
X -34.46025800 18.91146813 -36.04607550
X 11.87165285 29.80476493 -10.89329887
X -34.46025800 55.75219116 -32.67988158
X -28.05734540 44.36777726 -43.57316206
X -35.97178063 7.52707184 -7.52707856
X -44.82038822 34.76027822 -24.35814254
X -2.44569499 34.45675067 -16.64347472
X -35.03760827 33.17096220 -40.20694670
X -32.94873537 31.88519885 -7.52708944
X -42.37469323 51.59131996 -46.93937565
X -32.01456301 50.79668795 3.36618767
X -25.61165041 25.94743711 2.57154430
X -33.52608564 50.30556076 -4.95554178
X -21.65443279 54.16289195 -10.89330975
X -25.61165041 24.35813454 16.83104094
X -21.65443279 32.37631595 -21.78658558
X -4.89138997 20.19724573 -36.84073055
X -42.37469323 16.33992799 -0.79466177
X -42.37469323 18.91146813 -36.04607550
X -20.72026044 55.44866538 -20.99194141
X -21.65443279 18.91147822 -13.46484990
X -19.20873781 72.58324970 -17.62573871
X -24.10012778 41.49269789 -26.74210896
X -30.50304038 32.67984431 -27.72435197
X -52.73482345 29.01010524 -22.58123856
X -18.27456545 41.18917211 -15.05416879
X -35.03760827 15.54525327 -46.14470508
X -44.82038822 4.65197487 -30.10830287
X -7.91443523 39.41226653 -24.35814461
X -21.65443279 33.96560766 -60.40420923
X -28.05734540 7.52707184 -7.52707856
X -16.76304282 18.91146477 -43.57315069
X -24.10012778 48.22513020 -0.79467601
X -20.14291017 56.24332250 -15.05417551
X -48.77760583 56.24331499 -31.88522733
X -6.40291260 54.95753483 -36.84074607
X -44.82038822 24.84924827 -4.95553040
X -23.16595542 31.88517709 -56.24334347
X -6.40291260 48.22511180 -41.98385484
X -19.20873781 52.38598717 -18.42038416
X -43.88621586 14.25947983 -36.04607341
X -36.90595299 23.86699903 -10.09864175
X -4.89138997 21.78656255 -19.21502496
X -7.91443523 28.51897726 -32.67986942
X -39.92899824 23.86700655 6.73241007
X -7.33708496 53.67176139 -26.74211441
X -46.33191084 35.25141036 -4.95553505
X -6.40291260 26.43855342 -13.46485326
X -23.16595542 36.04605661 -23.37589617
X -7.33708496 20.99189790 -41.98384268
X -19.20873781 29.01009436 -46.93936557
X -11.29430258 42.47494891 -17.62572526
X -24.10012778 29.01011197 -7.52708816
X -20.72026044 33.66210027 -7.52709023
X -17.69721518 46.14470044 5.14309118
X -35.97178063 37.02830090 -29.31366285
X -22.58860515 41.98383181 -3.36622911
X -35.97178063 52.08246138 -6.73244399
X -9.78277995 37.82295724 -25.15279838
X -19.20873781 26.43854590 -30.29590508
X -27.12317304 53.36822138 -46.93937645
X -7.91443523 35.25140957 -6.73243647
X -33.52608564 39.41226989 -16.83106942
X -40.86317060 49.51088604 -50.30558509
X -38.41747561 32.67985518 -3.36622496
X -44.82038822 29.01010860 -15.05416335
X -42.37469323 12.17906014 -7.52708064
X -34.46025800 44.85890109 -42.77850781
X -52.73482345 12.97370639 -25.94744175
X -27.12317304 37.33185101 13.46482478
X 5.46874024 27.72432428 -29.31365870
X -24.67747805 29.80474733 -50.30557629
X -11.29430258 50.79667708 -20.99193934
X -38.41747561 33.66210027 -7.52709023
X -19.20873781 15.54527838 10.09862415
X -48.77760583 31.88518877 -30.10831504
X -37.48330326 28.21544475 -36.04607965
X -29.56886802 54.16287771 -42.77851197
X -41.44052087 52.87712187 6.73239711
X -15.25152019 45.35003579 -17.62572654
X -2.44569499 56.24331499 -31.88522733
X -39.92899824 57.52910267 -10.09865679
X -11.29430258 48.22512604 -10.09865262
X -43.88621586 40.20692029 -25.94745392
X -28.63469567 21.78655166 -43.57315198
X -36.90595299 48.22512269 -17.62572782
X -17.69721518 43.57312766 -32.67987614
X -32.01456301 65.85083083 -13.46487086
X -0.93417236 33.96562941 -11.68795520
X -6.40291260 29.01011197 -7.52708816
X -8.84860759 51.59133340 -16.83107486
X -37.48330326 45.84114617 -46.93937308
X 3.95721762 25.64389452 -23.37589152
X -39.35164797 33.96561517 -43.57315742
X -17.69721518 33.66210364 -0.00001503
X 0.00000000 70.50280569 -43.57317373
X -52.73482345 37.33182589 -42.77850445
X -25.61165041 47.73398797 -42.77850909
X -19.20873781 41.49269037 -43.57316078
X -18.27456545 25.15276574 -35.25142381
X 5.46874024 20.99190878 -17.62571567
X -20.14291017 33.47450479 -14.25951088
X -42.37469323 32.37632011 -12.48260897
X -47.26608320 16.33991711 -25.15278878
X -12.80582520 59.60952650 -29.31367295
X 0.00000000 10.89327584 -21.78657599
X -39.35164797 54.16288858 -18.42038495
X -41.44052087 31.09053500 -28.51900573
X -30.50304038 63.77040107 -7.52710368
X -38.41747561 59.60952986 -21.78659775
X -32.01456301 30.59941038 -31.09056141
X -4.89138997 57.03796875 -33.47453663
X -29.56886802 8.01818815 -23.56347612
X -42.37469323 25.64390124 -8.32174113
X -32.01456301 24.84924076 -21.78658222
X -16.76304282 54.16287434 -50.30558716
X -12.80582520 31.09054331 -9.91105250
X -11.29430258 44.06426315 -5.75019346
X -50.28912846 36.53716955 -46.93936893
X -6.40291260 8.81283855 -32.67986062
X -28.05734540 34.45675739 -1.58932433
X -10.36013022 18.42035776 -6.73242895
X -32.01456301 34.76028238 -15.05416593
X -3.95721762 38.12648558 -31.09056477
X -11.87165285 33.96562190 -28.51900702
X -11.29430258 48.22513020 -0.79467601
X -29.56886802 17.32216220 -29.31365406
X -18.27456545 56.24332587 -7.52710032
X -21.65443279 51.59132332 -39.41230045
X -36.90595299 23.86699231 -25.15279215
X -28.99151776 46.63581339 -18.42038159
X -16.76304282 27.23320718 -15.05416256
X -55.18051843 12.17906014 -7.52708064
X -13.73999756 33.96562525 -20.99193182
X -28.05734540 36.04607006 6.73240463
X -40.86317060 46.93933837 -31.88522318
X -19.20873781 13.95595821 -15.05415663
X -42.37469323 1.28576671 -25.15278206
X -42.37469323 23.07235022 2.57154558
X -16.76304282 8.01819230 -14.25949950
X -24.10012778 30.59941374 -23.56348621
X -30.50304038 26.92966796 -33.47452318
X -4.89138997 37.82296396 -10.09864798
X -47.84343347 19.70612111 -39.41228621
X -14.31734783 12.97370304 -33.47451695
X 9.42595786 26.43855006 -20.99192846
X -44.82038822 57.52908922 -40.20695758
X -25.61165041 39.41225902 -41.18919643
X -20.14291017 34.45675324 -10.89330095
X -24.67747805 32.37630923 -36.84073598
X -39.92899824 28.02786688 -3.36622288
X -8.84860759 20.50079168 -3.36621952
X -25.61165041 17.62570894 5.93775838
X -15.25152019 40.20691950 -27.72435534
X -28.05734540 47.92159354 -13.46486286
X -33.52608564 20.19724157 -46.14470716
X -13.73999756 36.53717628 -31.88521853
X -29.56886802 31.39406078 -40.20694590
X -12.80582520 31.09054588 -4.16087873
X -50.28912846 32.37631260 -29.31366078
X -23.16595542 29.31363023 -36.04608014
X -17.69721518 39.41225645 -46.93937022
X -10.36013022 34.45676411 13.46482606
X -32.01456301 17.13458096 -4.16087249
X -33.52608564 21.78655503 -36.04607678
X -15.25152019 25.15277246 -20.19727342
X -32.01456301 0.49111038 -29.31364654
X -44.82038822 46.63581339 -18.42038159
X -37.48330326 36.53719052 -0.00001631
X -25.61165041 19.21501824 6.73241215
X -32.01456301 35.74253755 3.36619439
X -54.24634608 41.98382508 -18.42037952
X -55.18051843 32.37631675 -20.00968416
X -7.33708496 16.83104430 -16.83105933
X -25.61165041 35.25142125 19.40259196
X -24.10012778 23.86699903 -10.09864175
X -12.80582520 36.84071550 -13.46485790
X -38.41747561 39.41226317 -31.88521981
X -10.36013022 20.99190878 -17.62571567
X -2.44569499 49.51088939 -42.77850989
X -6.40291260 30.59941790 -14.25950959
X -23.16595542 20.99190126 -34.45676748
X -26.54582277 20.50078159 -25.94744512
X -2.44569499 16.83104509 -15.05415792
X -38.41747561 -4.16086784 -6.73241887
X -23.16595542 36.04606254 -10.09864719
X -30.50304038 36.84071215 -20.99193310
X -24.67747805 25.64388700 -40.20694334
X -48.77760583 20.99191630 -0.79466385
X -29.56886802 21.48302668 -30.10831039
X -38.41747561 52.87710842 -23.37590368
X -35.97178063 -0.79466049 -13.46484110
X -60.64925868 19.70613119 -16.83106062
X -38.41747561 21.78655503 -36.04607678
X -35.97178063 45.35002155 -49.51092876
X -17.69721518 44.55538283 -14.25951582
X -28.05734540 23.56347405 3.36619984
X -42.37469323 40.69804333 -26.92970108
X -51.22330082 6.73240878 -26.74209344
X -21.65443279 47.43046635 -21.78659231
X -25.61165041 58.62728477 -17.62573247
X -25.61165041 55.44866538 -20.99194141
X -36.90595299 39.90339788 -6.73243855
X -19.20873781 57.52910267 -10.09865679
X -38.41747561 66.34194794 -27.72436701
X -43.88621586 34.45674988 -18.42037615
X -35.39443036 21.78655503 -36.04607678
X -26.54582277 47.43046299 -29.31366750
X -38.41747561 2.57154430 -25.94743711
X -25.61165041 5.14309870 -29.31364862
X -24.10012778 39.90339452 -14.25951375
X -23.16595542 52.08244715 -38.61764620
X -39.92899824 26.43855085 -19.21502704
X -31.08039065 45.35003244 -25.15280174
X -35.97178063 45.35003323 -23.37590032
X -34.46025800 27.23319630 -39.41228958
X -11.29430258 33.17096813 -26.92969772
X -10.36013022 18.42034431 -36.84072975
X -14.31734783 54.95753483 -36.84074607
X -22.23178306 37.33183677 -18.42037743
X -19.20873781 22.27769725 5.93775631
X -46.33191084 48.71624395 -22.58124736
X -33.52608564 28.51898814 -8.32174241
X -32.01456301 41.49270798 -4.16088337
X -11.29430258 50.79668043 -13.46486414
X -44.82038822 26.43855422 -11.68795184
X 0.00000000 41.98382171 -25.94745471
X -15.25152019 46.93934589 -15.05417136
X -32.01456301 48.22511853 -26.92970444
X -4.89138997 28.51897309 -41.98384604
X -2.44569499 34.45676076 5.93775086
X -30.50304038 13.46482686 -32.67986271
X -30.50304038 52.87711852 -0.79467809
X -38.41747561 47.73399470 -27.72435869
X -48.77760583 30.29588619 -15.84881840
X -11.29430258 33.17095805 -49.51092332
X -28.63469567 21.78655503 -36.04607678
X -28.05734540 64.56505067 -18.42038959
X -47.26608320 25.64389452 -23.37589152
X -26.54582277 32.37630923 -36.84073598
X -51.22330082 48.71624058 -30.10832255
X -3.37986735 28.02786688 -3.36622288
X -54.24634608 24.35810605 -46.93936349
X -30.50304038 36.84070542 -36.04608351
X -35.97178063 42.77847053 -38.61764205
X -8.84860759 43.26960187 -20.99193598
X -27.12317304 30.59941869 -12.48260817
X -47.84343347 48.22513020 -0.79467601
X -17.69721518 9.30395902 -39.41228157
X 0.00000000 70.50281241 -28.51902334
X -33.52608564 51.28778746 -50.30558588
X -25.61165041 2.57155439 -3.36621152
X -31.08039065 45.35003916 -10.09865135
X -3.95721762 47.43046971 -14.25951711
X -22.23178306 19.70612447 -31.88521101
X -42.37469323 44.85890524 -33.47453119
X 9.42595786 37.33183677 -18.42037743
X 1.51152263 26.43855422 -11.68795184
X -23.16595542 29.31364031 -13.46485454
X -36.90595299 57.52909594 -25.15280718
X -22.58860515 32.67984174 -33.47452576
X -6.40291260 15.54527087 -6.73242767
X -10.36013022 36.04605166 -34.45677420
X -19.20873781 41.49269374 -36.04608558
X -19.20873781 4.65196735 -46.93935470
X -55.18051843 32.37632684 2.57154143
X -50.28912846 31.39406751 -25.15279550
X -15.25152019 46.93934509 -16.83107278
X -47.26608320 40.69805084 -10.09864927
X -35.03760827 22.27768557 -20.19727212
X -25.61165041 21.78655839 -28.51900158
X -33.52608564 36.84071631 -11.68795649
X -32.01456301 23.86699982 -8.32174033
X -31.08039065 29.31364783 3.36619727
X -10.36013022 41.18917211 -15.05416879
X -3.37986735 22.27767214 -50.30557292
X -33.52608564 31.09053580 -26.74210431
X -19.20873781 76.74412091 -3.36624463
X -32.01456301 56.54684413 -36.04609230
X -35.97178063 26.13502507 -7.52708687
X -20.72026044 35.25141373 2.57154015
X -40.86317060 36.04604910 -40.20694798
X -7.33708496 23.56346653 -13.46485198
X -0.93417236 32.37630923 -36.84073598
X -34.46025800 33.96561853 -36.04608221
X -29.56886802 55.75219788 -17.62573119
X -28.05734540 56.24331499 -31.88522733
X -40.86317060 56.24332250 -15.05417551
X -21.65443279 58.32374218 -43.57316829
X -21.65443279 -2.87509776 -24.35812573
X -52.73482345 30.59941374 -23.56348621
X -38.41747561 32.67984510 -25.94745055
X -28.05734540 49.51090363 -10.89330767
X -38.41747561 63.77039355 -24.35815550
X -56.69204106 34.45675660 -3.36622575
X -25.61165041 63.77038683 -39.41230589
X -42.37469323 51.59132332 -39.41230045
X -50.28912846 44.85890524 -33.47453119
X -42.37469323 36.53716955 -46.93936893
X -17.69721518 32.67984094 -35.25142717
X -38.41747561 43.57313774 -10.09865055
X -7.33708496 34.45674315 -33.47452655
X -35.03760827 46.63580666 -33.47453199
X -37.48330326 14.75060029 -42.77849437
X -24.10012778 42.47493882 -40.20695086
X -38.41747561 17.62570478 -3.36621824
X -35.97178063 36.04606334 -8.32174577
X -33.52608564 24.35811949 -16.83106269
X -3.95721762 32.37632011 -12.48260897
X -8.84860759 44.85890524 -33.47453119
X -40.86317060 25.15276574 -35.25142381
X -23.16595542 38.61760348 -43.57315949
X -44.82038822 59.11840188 -31.88522861
X -28.05734540 23.56347068 -4.16087536
X -29.56886802 58.32376315 3.36618432
X -42.37469323 5.44663119 -25.94743840
X -32.01456301 48.22512348 -15.84882640
X -37.48330326 12.17905263 -24.35813245
X -52.73482345 15.54525742 -36.84072846
X -28.05734540 16.83104173 -22.58123312
X -19.20873781 52.38599388 -3.36623376
X -23.16595542 25.15277663 -10.89329679
X -12.80582520 31.09054668 -2.38397731
X -17.69721518 67.93126891 -0.79468481
X -25.61165041 31.09053165 -36.04608093
X -42.37469323 5.44663455 -18.42036319
X -33.52608564 39.41225645 -46.93937022
X -37.48330326 18.91145726 -60.40420251
X -16.76304282 44.85890445 -35.25143261
X 11.87165285 23.07233934 -21.78658142
X -23.16595542 58.81487610 -20.19728845
X -28.99151776 46.63581003 -25.94745679
X -29.56886802 40.69805836 6.73240255
X -16.76304282 58.32375643 -11.68796608
X -21.65443279 47.43045548 -46.14471932
X 1.51152263 22.27768973 -10.89329551
X -55.18051843 43.26959931 -26.74210976
X -47.84343347 37.33184014 -10.89330224
X -40.86317060 49.51089948 -20.19728429
X -15.25152019 22.58121551 -22.58123568
X -21.65443279 16.33991790 -23.37588737
X -16.76304282 51.59133420 -15.05417344
X -21.65443279 66.64547787 -30.10833056
X 11.87165285 33.96561853 -36.04608221
X -48.77760583 27.72432765 -21.78658351
X -40.86317060 34.45675739 -1.58932433
X -20.72026044 63.77040443 -0.00002848
X -23.16595542 18.42035518 -12.48260273
X -32.01456301 11.38440302 -13.46484653
X -38.41747561 24.35811614 -24.35813789
X -25.61165041 67.93125883 -23.37591041
X -47.84343347 35.74251995 -36.04608302
X -43.88621586 53.67176139 -26.74211441
X -12.80582520 50.30555660 -14.25951839
X -28.05734540 56.24331915 -22.58125071
X -35.97178063 27.72432844 -20.00968209
X -37.48330326 40.69805084 -10.09864927
X -30.50304038 35.25139533 -38.61763868
X -8.84860759 8.01818895 -21.78657470
X -44.82038822 39.90339788 -6.73243855
X -11.29430258 46.63580251 -42.77850861
X -37.48330326 40.69804492 -23.37589824
X -12.80582520 46.14469212 -13.46486206
X -38.41747561 4.16085776 -15.84880673
X -34.46025800 27.23319294 -46.93936477
X -13.73999756 47.43046971 -14.25951711
X -63.09495366 36.53718716 -7.52709152
X -21.65443279 36.53718300 -16.83106814
X -32.94873537 20.99190878 -17.62571567
X -27.12317304 42.47494891 -17.62572526
X -19.20873781 30.59941374 -23.56348621
X 3.02304526 37.82296396 -10.09864798
X -35.97178063 64.56504732 -25.94746479
X -39.92899824 37.33183004 -33.47452783
X -27.12317304 44.06425148 -31.88522190
X -38.41747561 26.92967132 -25.94744799
X -33.52608564 32.67984174 -33.47452576
X -4.89138997 44.55538283 -14.25951582
X -43.30886559 24.35812365 -7.52708608
X -42.37469323 62.48462012 -14.25952383
X -55.18051843 33.96562190 -28.51900702
X -15.25152019 44.36778399 -28.51901167
X -35.97178063 27.72432765 -21.78658351
X -17.69721518 44.55536523 -53.67179323
X -47.84343347 19.70612782 -24.35813582
X -8.84860759 20.50078831 -10.89329471
X -15.25152019 62.97574394 -13.46486958
X -20.14291017 46.93933916 -30.10832176
X -56.69204106 14.25947983 -36.04607341
X -46.33191084 46.14469292 -11.68796065
X -31.08039065 49.51090363 -10.89330767
X -24.10012778 37.33183261 -27.72435405
X -32.01456301 34.76027822 -24.35814254
X -35.97178063 18.42035776 -6.73242895
X -32.01456301 64.26151738 -23.56350125
X -25.61165041 35.25141036 -4.95553505
X -35.03760827 41.49270461 -11.68795856
X -20.72026044 28.51898734 -10.09864383
X 0.00000000 17.62569806 -18.42036863
X -17.69721518 40.39450826 -36.04608509
X -11.87165285 16.33991711 -25.15278878
X -26.54582277 54.16289531 -3.36623455
X -48.77760583 18.42034431 -36.84072975
X -19.20873781 63.27926300 -40.20696015
X -7.91443523 39.41225645 -46.93937022
X -32.94873537 25.15276574 -35.25142381
X -19.20873781 19.70611775 -46.93936141
X -20.14291017 38.61761020 -28.51900910
X -39.92899824 50.79667035 -36.04608974
X -7.33708496 45.35002571 -40.20695214
X -25.61165041 26.92966381 -42.77849980
X -21.65443279 44.85890861 -25.94745599
X -10.36013022 36.04605245 -32.67987278
X -3.37986735 46.63580666 -33.47453199
X -17.69721518 33.66209275 -24.35814205
X -21.65443279 23.07235022 2.57154558
X 1.51152263 33.17097229 -17.62572110
X -30.50304038 35.25139197 -46.14471389
X -25.61165041 39.41227742 -0.00001760
X -20.72026044 50.30555997 -6.73244319
X -31.08039065 27.72432765 -21.78658351
X -44.82038822 68.42237850 -31.88523277
X -33.52608564 54.46642445 -7.52709953
X -27.12317304 50.79668795 3.36618767
X -41.44052087 28.51897390 -40.20694463
X -24.10012778 23.86698895 -32.67986735
X -50.28912846 36.53718380 -15.05416672
X -19.20873781 44.06425820 -16.83107149
X -23.16595542 16.83103757 -31.88520973
X -24.10012778 23.86699310 -23.37589073
X -6.40291260 61.68995707 -33.47453871
X -7.33708496 25.15276239 -42.77849901
X -52.73482345 19.70612782 -24.35813582
X -27.12317304 59.11841276 -7.52710160
X -24.67747805 54.16289531 -3.36623455
X -20.72026044 28.51897982 -26.92969564
X -26.54582277 36.53717292 -39.41229373
X -11.29430258 65.85083499 -4.16089425
X -23.16595542 10.09861950 -25.94744047
X -29.56886802 49.01976894 -36.04608894
X -28.99151776 33.17096220 -40.20694670
X -47.26608320 36.53718716 -7.52709152
X -38.41747561 31.09054588 -4.16087873
X -32.01456301 45.65355821 -36.84074191
X -4.89138997 10.89328255 -6.73242559
X -17.69721518 59.60953659 -6.73244735
X -3.95721762 58.32374891 -28.51901790
X -29.56886802 29.80476829 -3.36622368
X -44.82038822 48.22511180 -41.98385484
X -44.82038822 34.76026815 -46.93936813
X -28.63469567 17.62568382 -50.30557085
X -22.23178306 37.33184349 -3.36622704
X -20.72026044 10.89327919 -14.25950079
X -12.80582520 59.60952314 -36.84074815
X -25.61165041 9.30396574 -24.35813117
X -17.69721518 32.67985518 -3.36622496
X -21.65443279 33.96563693 5.14309661
X -16.76304282 40.69803325 -49.51092668
X 3.02304526 37.82295387 -32.67987358
X -28.05734540 16.83104094 -24.35813454
X -17.69721518 63.77040443 -0.00002848
X -29.56886802 36.53717549 -33.66211995
X -23.16595542 40.20691614 -35.25143054
X -46.33191084 59.60952986 -21.78659775
X -24.67747805 32.37631260 -29.31366078
X -33.52608564 57.03796875 -33.47453663
X 5.46874024 31.88518125 -46.93936685
X -20.72026044 33.66210364 -0.00001503
X -19.20873781 50.79667371 -28.51901453
X 1.51152263 8.81284191 -25.15278543
X -19.20873781 48.22513020 -0.79467601
X -30.50304038 48.71625067 -7.52709696
X -40.86317060 36.04605918 -17.62572238
X -12.80582520 13.46483101 -23.37588608
X -8.84860759 29.80476909 -1.58932226
X -4.89138997 31.09053580 -26.74210431
X -44.82038822 8.81284863 -10.09863503
X 11.87165285 54.16288522 -25.94746015
X -42.37469323 12.17905679 -15.05415584
X -28.05734540 41.18917547 -7.52709359
X -14.31734783 26.43854333 -36.04607886
X -19.20873781 35.74253419 -4.16088080
X -21.65443279 39.10874155 -10.89330302
X -0.93417236 43.26959931 -26.74210976
X -38.41747561 74.66367354 -36.84075487
X -2.44569499 53.67176396 -20.99194062
X -37.48330326 50.00202746 -10.09865342
X -35.03760827 50.79667787 -19.21503792
X -2.44569499 49.51088604 -50.30558509
X -3.95721762 5.44664128 -3.36621279
X -23.16595542 36.04606669 -0.79467057
X -34.46025800 60.89530330 -31.88522941
X -22.58860515 35.25140957 -6.73243647
X -24.67747805 47.43047308 -6.73244191
X -21.65443279 14.75060029 -42.77849437
X -34.46025800 69.21704571 -3.36624128
X -44.82038822 29.01011948 9.30396366
X -25.61165041 46.14468876 -20.99193726
X -50.28912846 33.96562525 -20.99193182
X -30.50304038 48.71624058 -30.10832255
X -32.01456301 -6.24130512 -17.62570351
X -43.88621586 31.88519212 -22.58123984
X -25.61165041 67.93127227 6.73239039
X -29.56886802 9.60749567 -26.74209472
X -32.94873537 38.61761357 -20.99193390
X -47.84343347 54.95755580 10.09860655
X -21.65443279 31.39406415 -32.67987071
X -32.01456301 11.38440381 -11.68794512
X -38.41747561 37.82296396 -10.09864798
X -10.36013022 42.77847132 -36.84074063
X 3.95721762 32.37633019 10.09861663
X -7.33708496 25.15276654 -33.47452239
X -27.12317304 26.43855085 -19.21502704
X -35.97178063 58.81487273 -27.72436364
X -42.37469323 33.96560766 -60.40420923
X -34.46025800 18.91147565 -19.21502368
X -25.61165041 72.09213259 -3.36624256
X -35.03760827 48.22513357 6.73239918
X 5.46874024 27.72432765 -21.78658351
X -63.09495366 43.26961275 3.36619104
X -26.54582277 51.59133420 -15.05417344
X -42.37469323 32.37633019 10.09861663
X -28.05734540 37.02829754 -36.84073806
X -35.97178063 11.68794304 6.73241551
X -25.61165041 50.30554988 -29.31366879
X -19.20873781 33.17095805 -49.51092332
X -33.52608564 44.55538283 -14.25951582
X -50.28912846 29.80475741 -27.72435069
X -23.16595542 42.77847883 -20.00968881
X -38.41747561 13.46484110 -0.79466049
X -12.80582520 6.73241135 -20.99191966
X -34.46025800 58.32376315 3.36618432
X -33.52608564 17.62568719 -42.77849565
X 1.51152263 37.33183677 -18.42037743
X -37.48330326 16.33991374 -32.67986398
X -16.76304282 29.80476078 -20.19727549
X -14.31734783 30.59940366 -46.14471180
X -8.84860759 47.43046635 -21.78659231
X -19.20873781 50.79667035 -36.04608974
X -25.61165041 32.67984846 -18.42037536
X -23.16595542 41.18917211 -15.05416879
X -13.73999756 20.50078159 -25.94744512
X -14.31734783 30.59940702 -38.61763660
X -22.23178306 19.70613119 -16.83106062
X -33.52608564 16.03638461 -28.51899901
X -22.58860515 31.09052828 -43.57315614
X -35.97178063 49.51090779 -1.58933106
X 7.91443523 41.98382508 -18.42037952
X -33.52608564 57.03797212 -25.94746144
X -30.50304038 13.46483694 -10.09863710
X -10.36013022 42.77846380 -53.67179244
X -21.65443279 44.85892621 13.46482142
X -25.61165041 15.05414447 -13.27725571
X -4.89138997 17.62569134 -33.47451903
X -21.65443279 21.48303676 -7.52708479
X -11.29430258 30.59941790 -14.25950959
X -15.25152019 62.97573049 -43.57317038
X -20.14291017 20.99189454 -49.51091788
X 1.51152263 44.06425564 -22.58124527
X -44.82038822 23.86699566 -17.62571695
X -42.37469323 14.75060444 -33.47451775
X -30.50304038 32.67983758 -42.77850237
X -28.05734540 52.08244715 -38.61764620
X 0.00000000 63.77039019 -31.88523070
X -21.65443279 24.66165280 -11.68795105
X -25.61165041 30.10828735 -30.10831424
X -10.36013022 10.09862286 -18.42036527
X -6.40291260 26.43855422 -11.68795184
X -10.36013022 31.88518877 -30.10831504
X -41.44052087 36.84072302 3.36619391
X -11.87165285 36.53717707 -30.10831711
X -21.65443279 36.53719468 9.30396030
X -14.31734783 57.52908922 -40.20695758
X -35.97178063 14.25949071 -11.68794641
X -38.41747561 44.55538283 -14.25951582
X -21.65443279 8.01818479 -31.09055132
X -41.44052087 57.03798636 5.93774078
X 3.02304526 48.71624730 -15.05417216
X -32.01456301 29.01010939 -13.27726193
X -33.52608564 59.60952650 -29.31367295
X -34.46025800 29.80474733 -50.30557629
X -46.33191084 20.19725917 -6.73242975
X -44.82038822 48.22512604 -10.09865262
X -15.25152019 37.02830090 -29.31366285
X -39.92899824 30.59941869 -12.48260817
X -12.80582520 24.35811693 -22.58123647
X -33.52608564 44.55537867 -23.56349244
X -35.97178063 12.67017725 -21.78657678
X -32.01456301 42.47493882 -40.20695086
X -23.16595542 56.24331915 -22.58125071
X -25.61165041 13.46482686 -32.67986271
X -28.05734540 31.88520301 1.77688718
X -42.37469323 32.37631675 -20.00968416
X -42.37469323 42.28734334 -46.93937150
X -29.56886802 8.01819567 -6.73242431
X -38.41747561 48.71623643 -39.41229917
X -60.64925868 46.63580666 -33.47453199
X -18.27456545 25.15276239 -42.77849901
X -11.87165285 47.43046971 -14.25951711
X -10.36013022 7.52707520 -0.00000336
X -30.50304038 48.71623307 -46.93937437
X -32.01456301 -2.08044064 -18.42035983
X -42.37469323 60.89530330 -31.88522941
X -20.72026044 32.67983422 -50.30557757
X -20.72026044 35.25140205 -23.56348829
X -55.18051843 27.23320639 -16.83106398
X -51.22330082 39.41226317 -31.88521981
X -8.84860759 44.85890445 -35.25143261
X -23.16595542 42.77847132 -36.84074063
X -21.65443279 28.21545484 -13.46485405
X -44.82038822 22.27769310 -3.36622031
X -8.84860759 31.39406415 -32.67987071
X -46.33191084 37.82295052 -40.20694878
X -8.84860759 51.59133756 -7.52709823
X -32.01456301 33.17098396 8.50930733
X -24.10012778 39.90340203 2.57153807
X -20.72026044 52.87712187 6.73239711
X 15.82887046 48.71624395 -22.58124736
X -50.28912846 36.53718044 -22.58124191
X -21.65443279 10.58974333 -25.15278621
X -25.61165041 39.41226653 -24.35814461
X -19.20873781 44.06424396 -48.71627371
X -24.67747805 33.96562190 -28.51900702
X -4.89138997 41.98382171 -25.94745471
X -25.61165041 16.03638541 -26.74209759
X 1.51152263 22.27769310 -3.36622031
X -12.80582520 43.57312350 -41.98385276
X -17.69721518 33.66210027 -7.52709023
X -52.73482345 39.90339195 -20.00968752
X -41.44052087 57.03798299 -1.58933441
X -12.80582520 37.82296139 -15.84882176
X -25.61165041 52.87710763 -25.15280510
X -20.14291017 40.20693038 -3.36622832
X -31.08039065 53.67176812 -11.68796400
X -43.88621586 53.67177148 -4.16088880
X -67.05217128 21.78655839 -28.51900158
X -59.13773605 37.82295803 -23.37589696
X -50.28912846 33.96561853 -36.04608221
X -20.14291017 60.40419034 -8.32175665
X -38.41747561 31.09054331 -9.91105250
X -25.61165041 28.51898477 -15.84881760
X -10.36013022 25.15277998 -3.36622159
X -6.40291260 26.43853998 -43.57315406
X -33.52608564 17.62569134 -33.47451903
X 5.46874024 45.35003995 -8.32174993
X -46.33191084 28.51896638 -57.03799644
X -33.52608564 40.39451835 -13.46485949
X -28.05734540 27.72431677 -46.14471052
X -25.61165041 54.46641357 -31.88522653
X -18.27456545 25.15277998 -3.36622159
X -25.61165041 33.66209691 -15.05416544
X -29.56886802 55.75220877 6.73239583
X -43.88621586 27.72433437 -6.73243311
X -46.33191084 26.92967468 -18.42037279
X -17.69721518 59.60952314 -36.84074815
X -3.95721762 54.16289195 -10.89330975
X -17.69721518 57.03796875 -33.47453663
X -7.33708496 27.72432349 -31.09056013
X -59.13773605 24.35812365 -7.52708608
X -54.24634608 32.67984174 -33.47452576
X -13.73999756 35.55493199 -25.94745184
X -37.48330326 31.39408174 6.73240670
X -16.76304282 27.23319294 -46.93936477
X -44.82038822 33.17098316 6.73240591
X -24.10012778 45.65356830 -14.25951631
X 11.87165285 47.43046635 -21.78659231
X -39.92899824 29.01010860 -15.05416335
X -22.58860515 52.87710842 -23.37590368
X -35.97178063 33.47450143 -21.78658607
X -52.73482345 37.33182925 -35.25142925
X -43.88621586 37.02830762 -14.25951246
X -29.56886802 33.96562525 -20.99193182
X -32.01456301 0.49110702 -36.84072174
X -34.46025800 1.28575999 -40.20693246
X -39.92899824 39.90339868 -4.95553713
X -43.88621586 49.51090443 -9.11640625
X -19.20873781 72.58323962 -40.20696430
X -25.61165041 39.41226238 -33.66212123
X -19.20873781 54.95752731 -53.67179788
X -0.93417236 16.33991374 -32.67986398
X -11.87165285 23.07233261 -36.84073183
X -34.46025800 8.01818895 -21.78657470
X 3.95721762 18.91148238 -4.16087328
X -27.12317304 52.38598380 -25.94745936
X -6.40291260 33.17096972 -23.37589488
X -6.40291260 12.97370976 -18.42036656
X -8.84860759 38.12648638 -29.31366335
X -15.25152019 57.83263517 -6.73244656
X -11.29430258 8.81283855 -32.67986062
X -4.89138997 35.25141373 2.57154015
X -7.33708496 20.99191214 -10.09864046
X -37.48330326 23.07233598 -29.31365662
X -47.26608320 23.07234270 -14.25950623
X -19.20873781 44.06425148 -31.88522190
X -13.73999756 43.26961275 3.36619104
X -2.44569499 25.15276239 -42.77849901
X -16.76304282 62.48462347 -6.73244863
X -22.58860515 44.55538619 -6.73244062
X -16.18569255 42.47495226 -10.09865006
X -44.82038822 50.79668459 -4.16088753
X -56.69204106 31.88518797 -31.88521646
X -11.29430258 35.74253419 -4.16088080
X -16.76304282 23.07233182 -38.61763325
X 7.91443523 32.67984431 -27.72435197
X -47.84343347 23.86699566 -17.62571695
X -27.12317304 19.70613871 -0.00000880
X -44.82038822 12.97371311 -10.89329136
X -15.25152019 10.09862959 -3.36621487
X -19.20873781 22.27769310 -3.36622031
X -23.16595542 49.51089612 -27.72435949
X -24.10012778 46.63580924 -27.72435821
X -28.05734540 20.99189454 -49.51091788
X -48.77760583 25.15276990 -25.94744719
X -46.33191084 57.03797884 -10.89331103
X -38.41747561 24.35813117 9.30396574
X -35.39443036 48.71625403 -0.00002176
X 11.87165285 33.96561517 -43.57315742
X -32.01456301 57.52909930 -17.62573198
X -35.03760827 29.01010781 -16.83106477
X -23.16595542 38.61759596 -60.40421131
X -12.80582520 41.98382508 -18.42037952
X -15.25152019 10.09862207 -20.19726669
X 3.02304526 52.87712187 6.73239711
X -32.94873537 34.45674652 -25.94745135
X -42.37469323 43.26960266 -19.21503456
X -19.20873781 45.65356078 -31.09056813
X -23.16595542 34.45675067 -16.64347472
X -20.72026044 46.14469965 3.36618975
X -43.88621586 45.35003579 -17.62572654
X 15.82887046 21.78656511 -13.46485118
X -14.31734783 37.33184349 -3.36622704
X -42.37469323 43.26960603 -11.68795936
X -39.92899824 34.76028574 -7.52709072
X -39.92899824 54.95753820 -29.31367087
X -30.50304038 31.09053837 -20.99193054
X -28.05734540 42.77847389 -31.09056685
X -12.80582520 35.25138861 -53.67178908
X -37.48330326 18.91147822 -13.46484990
X -0.93417236 36.53718044 -22.58124191
X -39.92899824 44.06425564 -22.58124527
X -8.84860759 42.28734670 -39.41229630
X -31.08039065 33.47449807 -29.31366127
X -27.12317304 30.59942878 10.09861742
X -19.20873781 61.68995963 -27.72436493
X -10.36013022 27.72433180 -12.48260688
X -27.12317304 45.65356830 -14.25951631
X -27.12317304 31.58166635 -10.89329967
X -21.65443279 27.23321055 -7.52708736
X -3.37986735 23.86699903 -10.09864175
X -25.61165041 17.62569134 -33.47451903
X -21.65443279 51.59133340 -16.83107486
X -32.01456301 33.17098060 0.98223213
X -19.20873781 76.74411082 -25.94747023
X -28.99151776 39.90338443 -36.84073935
X -32.01456301 61.68995963 -27.72436493
X -27.12317304 61.68995707 -33.47453871
X -43.88621586 20.99189790 -41.98384268
X -20.14291017 27.72432686 -23.56348492
X -24.10012778 30.59940030 -53.67178700
X -40.86317060 30.29588955 -8.32174320
X -4.89138997 31.09054173 -13.46485534
X -8.84860759 14.75061117 -18.42036735
X -28.99151776 50.79668123 -11.68796272
X -27.12317304 41.49269037 -43.57316078
X -39.92899824 50.79667708 -20.99193934
X -9.78277995 21.78656175 -20.99192638
X -15.82887046 28.51898734 -10.09864383
X -54.24634608 25.94741951 -36.84073311
X -21.65443279 44.85891612 -9.11640418
X -11.87165285 47.43047308 -6.73244191
X -11.29430258 53.36823482 -16.83107566
X -17.69721518 48.71624058 -30.10832255
X -23.16595542 36.04604830 -41.98384940
X -31.08039065 34.45674652 -25.94745135
X 11.87165285 16.33991374 -32.67986398
X -21.65443279 27.23321470 1.77688926
X -24.10012778 35.74252747 -19.21503119
X -46.33191084 20.19725245 -21.78658015
X -12.80582520 37.82295387 -32.67987358
X -56.69204106 18.42035776 -6.73242895
X -30.50304038 35.25139949 -29.31366207
X -29.56886802 32.37633019 10.09861663
X -50.28912846 54.16288186 -33.47453535
X -4.89138997 35.25140285 -21.78658687
X -2.44569499 29.31363358 -28.51900494
X -32.01456301 20.68837371 -26.74209967
X -24.67747805 38.12648301 -36.84073855
X -32.01456301 11.38440046 -19.21502032
X -51.22330082 43.57311677 -57.03800316
X -16.76304282 28.21545227 -19.21502784
X -44.82038822 72.58324298 -32.67988910
X -21.65443279 31.39407502 -8.32174369
X -10.36013022 23.56347405 3.36619984
X -37.48330326 25.64388284 -49.51091996
X -59.13773605 48.71625403 -0.00002176
X -28.63469567 28.51898734 -10.09864383
X -7.33708496 38.61760348 -43.57315949
X -35.97178063 36.04605582 -25.15279759
X -13.73999756 50.00201402 -40.20695421
X -11.29430258 33.17096476 -34.45677292
X -31.08039065 34.45674988 -18.42037615
X -19.20873781 26.43853246 -60.40420588
X -46.33191084 24.35812365 -7.52708608
X -47.84343347 41.49270125 -19.21503377
X -10.36013022 14.25949071 -11.68794641
X -23.16595542 49.51090363 -10.89330767
X -37.48330326 55.75219532 -23.37590497
X -17.69721518 46.14469965 3.36618975
X -33.52608564 2.57154015 -35.25141373
X -20.72026044 48.71624395 -22.58124736
X -16.76304282 40.69804077 -32.67987486
X -27.12317304 35.74253083 -11.68795600
X -19.20873781 13.95595148 -30.10830703
X -29.56886802 29.80474733 -50.30557629
X -17.69721518 28.51896974 -49.51092124
X -22.58860515 46.14468956 -19.21503584
X -19.20873781 72.58324634 -25.15281390
X -12.80582520 22.76881772 -0.79466464
X -23.16595542 45.35003579 -17.62572654
X -44.82038822 41.49268286 -60.40421259
X -2.44569499 34.45674652 -25.94745135
X -39.92899824 23.86699903 -10.09864175
X -16.18569255 48.22512684 -8.32175121
X -26.54582277 33.96562269 -26.74210560
X -32.01456301 46.63581339 -18.42038159
X -15.25152019 18.42035439 -14.25950415
X -35.97178063 30.29588203 -25.15279501
X -35.97178063 18.42034431 -36.84072975
X -27.12317304 26.43853582 -52.87713067
X -34.46025800 18.91146477 -43.57315069
X -6.40291260 29.01012284 16.83103886
X -44.82038822 37.33182253 -50.30557964
X -14.31734783 23.86699566 -17.62571695
X -13.73999756 54.16288186 -33.47453535
X -35.97178063 52.08245466 -21.78659438
X -8.84860759 36.53719132 1.77688511
X -19.20873781 26.43855422 -11.68795184
X -13.73999756 18.91146398 -45.35005212
X -51.22330082 37.82296475 -8.32174657
X -29.56886802 25.64388957 -34.45676956
X -27.12317304 28.02785679 -25.94744848
X -29.56886802 18.91146398 -45.35005212
X -28.05734540 38.61759596 -60.40421131
X -46.33191084 32.67984510 -25.94745055
X -43.88621586 56.24332250 -15.05417551
X -26.54582277 40.69805501 -0.79467265
X -16.18569255 29.01010445 -24.35813997
X -7.91443523 48.71624395 -22.58124736
X -17.69721518 41.98383181 -3.36622911
X -30.50304038 28.51897982 -26.92969564
X -25.61165041 -8.32174913 -43.57313853
X -35.03760827 19.70613119 -16.83106062
X -14.31734783 33.17097644 -8.32174448
X -52.73482345 26.43853998 -43.57315406
X 7.91443523 46.14469212 -13.46486206
X -51.22330082 50.30553901 -53.67179581
X -26.54582277 44.85890524 -33.47453119
X -38.41747561 31.09055676 20.19724829
X -44.82038822 50.79667787 -19.21503792
X -10.36013022 53.67176396 -20.99194062
X -42.37469323 33.96562605 -19.21503040
X -24.10012778 19.70612862 -22.58123440
X -12.80582520 20.19726669 10.09862207
X -47.26608320 51.59131996 -46.93937565
X -44.82038822 22.27769053 -9.11639409
X -6.40291260 44.06425820 -16.83107149
X -8.84860759 29.80476236 -16.64347265
X -12.80582520 46.14468620 -26.74211104
X -46.33191084 46.14469965 3.36618975
X 0.00000000 50.30555245 -23.56349501
X -32.01456301 70.01169867 -6.73245199
X 5.46874024 36.04606254 -10.09864719
X -11.29430258 29.01010187 -30.10831375
X 3.02304526 37.82296059 -17.62572318
X -11.29430258 34.76028159 -16.83106733
X -44.82038822 65.85082411 -28.51902126
X -16.76304282 33.96562269 -26.74210560
X -20.72026044 48.71625067 -7.52709696
X -8.84860759 20.50078159 -25.94744512
X -33.52608564 41.98381084 -50.30558173
X -44.82038822 41.49269037 -43.57316078
X -23.16595542 33.47450815 -6.73243567
X -27.12317304 61.68997051 -3.36623792
X -20.72026044 35.25138861 -53.67178908
X -42.37469323 32.37632347 -4.95553377
X -19.20873781 37.33182846 -37.02833067
X -30.50304038 39.41227742 -0.00001760
X -46.33191084 24.35812702 -0.00001088
X -23.16595542 25.15276990 -25.94744719
X -0.93417236 25.64388700 -40.20694334
X -31.08039065 37.02830090 -29.31366285
X -24.10012778 33.17096972 -23.37589488
X -15.25152019 49.51090107 -16.64348145
X -9.78277995 28.51897726 -32.67986942
X -32.01456301 26.43853998 -43.57315406
X -44.82038822 30.59942126 -6.73243439
X -29.56886802 35.55492862 -33.47452704
X -54.24634608 37.82296059 -17.62572318
X -32.01456301 7.22354270 -3.36621359
X -22.23178306 30.59940782 -36.84073519
X -32.01456301 39.90339868 -4.95553713
X -34.46025800 58.32375563 -13.46486750
X -0.93417236 12.17904927 -31.88520766
X -12.80582520 6.73241471 -13.46484446
X -30.50304038 28.51897309 -41.98384604
X -33.52608564 52.87710842 -23.37590368
X -52.73482345 29.01010187 -30.10831375
X -39.92899824 11.38439630 -28.51899694
X -13.73999756 50.00202411 -17.62572862
X -35.97178063 3.36620063 -21.78657263
X 0.00000000 59.60952650 -29.31367295
X -15.82887046 28.51898398 -17.62571903
X -12.80582520 2.57155103 -10.89328671
X -24.67747805 44.85890524 -33.47453119
X -27.12317304 38.92113935 -32.67987407
X -25.61165041 48.71624651 -16.83107357
X 5.46874024 52.08245466 -21.78659438
X -21.65443279 16.33992126 -15.84881216
X -28.63469567 52.87711179 -15.84882849
X -40.86317060 45.35002571 -40.20695214
X -44.82038822 12.97370639 -25.94744175
X 9.42595786 39.90338443 -36.84073935
X -17.69721518 21.78655503 -36.04607678
X -52.73482345 8.81284527 -17.62571023
X -0.93417236 16.33992047 -17.62571358
X -24.10012778 12.97370639 -25.94744175
X 3.95721762 33.96562190 -28.51900702
X -29.56886802 14.75060365 -35.25141916
X -36.90595299 22.27768301 -25.94744591
X 5.46874024 41.18917547 -7.52709359
X -40.86317060 45.35003323 -23.37590032
X -29.56886802 43.26960187 -20.99193598
X -48.77760583 34.45674988 -18.42037615
X -12.80582520 48.71624315 -24.35814878
X -24.67747805 43.26961275 3.36619104
X -35.97178063 60.40419034 -8.32175665
X -27.12317304 4.65197071 -39.41227949
X -18.27456545 49.51090700 -3.36623248
X -21.65443279 43.26960603 -11.68795936
X -54.24634608 28.51898398 -17.62571903
X -35.97178063 30.29588955 -8.32174320
X -10.36013022 40.20692287 -20.19728013
X -63.09495366 40.69804412 -25.15279966
X -3.95721762 40.69804077 -32.67987486
X -40.86317060 30.29589291 -0.79466800
X 7.91443523 48.71624730 -15.05417216
X -11.29430258 39.90340540 10.09861326
X -17.69721518 39.41228157 9.30395902
X -32.01456301 37.33184429 -1.58932562
X -17.69721518 37.82295803 -23.37589696
X -20.14291017 46.93934253 -22.58124656
X -24.67747805 20.50078831 -10.89329471
X -25.61165041 13.46482270 -41.98383932
X -37.48330326 39.10872731 -42.77850524
X -13.73999756 58.32375979 -4.16089088
X -25.61165041 29.50123579 -6.73243390
X -24.10012778 44.06425484 -24.35814669
X -47.84343347 48.22513357 6.73239918
X -46.33191084 37.82296396 -10.09864798
X -38.41747561 41.98381836 -33.47452991
X -25.61165041 2.57153343 -50.30556412
X 5.46874024 38.61762444 3.36619312
X -27.12317304 53.36823482 -16.83107566
X 1.51152263 34.76026815 -46.93936813
X -27.12317304 39.90338443 -36.84073935
X -4.89138997 52.87711515 -8.32175328
X -23.16595542 31.88520637 9.30396238
X -41.44052087 20.19723821 -53.67178236
X -0.93417236 54.16288858 -18.42038495
X -35.97178063 71.29747290 -15.05418224
X -38.41747561 4.16085439 -23.37588193
X -37.48330326 39.10873482 -25.94745343
X -23.16595542 41.18915787 -46.93937101
X -33.52608564 51.28779418 -35.25143549
X -56.69204106 49.51089691 -25.94745807
X -25.61165041 54.46640685 -46.93937694
X -23.16595542 18.42034767 -29.31365455
X -10.36013022 62.97573386 -36.04609517
X -47.26608320 23.07233598 -29.31365662
X -14.31734783 8.81284863 -10.09863503
X 3.95721762 32.37632684 2.57154143
X -12.80582520 59.60953659 -6.73244735
X -26.54582277 31.39406078 -40.20694590
X -17.69721518 55.44866202 -28.51901662
X -11.29430258 39.90339531 -12.48261232
X 9.42595786 50.79668459 -4.16088753
X -35.97178063 40.20690942 -50.30558093
X -6.40291260 33.17098316 6.73240591
X -39.92899824 34.76028238 -15.05416593
X -48.77760583 52.08244793 -36.84074478
X -15.25152019 14.25947983 -36.04607341
X -31.08039065 52.08245130 -29.31366958
X -32.01456301 44.06426652 1.77688174
X -33.52608564 41.98383181 -3.36622911
X -23.16595542 53.67175724 -36.04609102
X -19.20873781 8.81284191 -25.15278543
X -19.20873781 18.11683277 6.73241263
X -0.93417236 38.12648301 -36.84073855
X -47.26608320 54.16289531 -3.36623455
X -46.33191084 52.87711436 -10.09865470
X -25.61165041 35.25140364 -20.00968545
X -23.16595542 27.72433517 -4.95553169
X -29.56886802 9.60750240 -11.68794432
X -28.05734540 20.99189790 -41.98384268
X -37.48330326 40.69804828 -15.84882305
X -33.52608564 41.98382923 -9.11640290
X -14.31734783 33.17098316 6.73240591
X 0.00000000 63.77039355 -24.35815550
X -35.97178063 52.08244793 -36.84074478
X -19.20873781 8.81283855 -32.67986062
X -31.08039065 38.61760684 -36.04608430
X -41.44052087 21.78656175 -20.99192638
X -34.46025800 28.21545900 -4.16087743
X -37.48330326 39.10872395 -50.30558044
X -14.31734783 57.52909930 -17.62573198
X -36.90595299 30.59940366 -46.14471180
X -25.61165041 26.92967053 -27.72434941
X -32.01456301 19.70612111 -39.41228621
X -15.25152019 12.67017725 -21.78657678
X -46.33191084 63.77040107 -7.52710368
X -35.03760827 54.95755580 10.09860655
X -39.92899824 4.65198079 -16.83105389
X -22.58860515 32.67984846 -18.42037536
X -31.08039065 46.93933916 -30.10832176
X -35.97178063 37.02830762 -14.25951246
X -39.92899824 34.76028910 -0.00001552
X -21.65443279 49.01976894 -36.04608894
X -22.23178306 37.33183341 -25.94745264
X 1.51152263 39.90339116 -21.78658894
X -33.52608564 25.94743295 -6.73243232
X -6.40291260 46.63582011 -3.36623119
X -35.03760827 39.90339452 -14.25951375
X -27.12317304 37.33183756 -16.64347602
X -33.52608564 28.51898142 -23.37589280
X -37.48330326 14.75059693 -50.30556956
X -17.69721518 48.71625067 -7.52709696
X -20.14291017 27.72432765 -21.78658351
X -33.52608564 44.55537946 -21.78659103
X -37.48330326 45.84115627 -24.35814749
X -37.48330326 21.48302589 -31.88521181
X -21.65443279 12.17904927 -31.88520766
X -17.69721518 46.14469212 -13.46486206
X -23.16595542 20.99191214 -10.09864046
X -17.69721518 57.03797627 -16.64348482
X -17.69721518 32.67984431 -27.72435197
X -38.41747561 52.87710427 -32.67988030
X -37.48330326 29.80476157 -18.42037407
X -28.05734540 31.88518125 -46.93936685
X -6.40291260 19.70613535 -7.52708400
X -22.58860515 28.51898062 -25.15279422
X -37.48330326 58.32375643 -11.68796608
X -41.44052087 43.57314526 6.73240127
X -24.10012778 30.59940782 -36.84073519
X -7.91443523 24.35812030 -15.05416128
X -27.12317304 39.90338779 -29.31366415
X -38.41747561 61.19883580 -28.51901918
X -29.56886802 14.75061038 -20.19726877
X -2.44569499 20.99190957 -15.84881425
X -9.78277995 24.35811949 -16.83106269
X -32.94873537 45.35003323 -23.37590032
X -21.65443279 38.12648558 -31.09056477
X -31.08039065 36.04606669 -0.79467057
X 5.46874024 36.04605918 -17.62572238
X -32.01456301 22.27768221 -27.72434733
X -33.52608564 57.03797884 -10.89331103
X -13.73999756 27.23321055 -7.52708736
X -40.86317060 45.35004331 -0.79467473
X -25.61165041 54.46642029 -16.83107614
X -50.28912846 36.53718300 -16.83106814
X -9.78277995 32.67985518 -3.36622496
X -10.36013022 60.40418283 -25.15280846
X -29.56886802 27.23320639 -16.83106398
X -19.20873781 68.42237850 -31.88523277
X -19.20873781 15.54527502 2.57154895
X -16.76304282 18.91147901 -11.68794848
X -44.82038822 41.49270045 -20.99193518
X -4.89138997 24.35811949 -16.83106269
X -13.73999756 25.64388621 -41.98384475
X -35.97178063 20.99191630 -0.79466385
X -32.01456301 46.63581003 -25.94745679
X -6.40291260 48.22511853 -26.92970444
X -21.65443279 23.07233854 -23.56348285
X -52.73482345 57.52908922 -40.20695758
X -33.52608564 47.73400558 -3.36623168
X -20.72026044 50.30555325 -21.78659359
X -20.72026044 55.44865866 -36.04609181
X 5.46874024 41.18916874 -22.58124399
X -43.88621586 53.67177484 3.36618639
X -29.56886802 50.00202746 -10.09865342
X -38.41747561 17.62570894 5.93775838
X -43.30886559 35.25139613 -36.84073726
X -25.61165041 4.16085776 -15.84880673
X -21.65443279 55.75219452 -25.15280639
X -11.87165285 36.53718044 -22.58124191
X -55.18051843 25.64389788 -15.84881632
X -30.50304038 37.82296811 -0.79467136
X -8.84860759 38.12649646 -6.73243776
X -17.69721518 41.98382428 -20.19728093
X -23.16595542 53.67176396 -20.99194062
X -19.20873781 57.52909930 -17.62573198
X -33.52608564 20.19725917 -6.73242975
X -17.69721518 24.35811693 -22.58123647
X -15.25152019 33.47449807 -29.31366127
X -26.54582277 43.26960603 -11.68795936
X -17.69721518 24.35811278 -31.88521309
X -32.01456301 57.52908922 -40.20695758
X -25.61165041 48.71623227 -48.71627579
X -7.33708496 20.99189117 -57.03799308
X -10.36013022 27.72432844 -20.00968209
X -41.44052087 37.82295387 -32.67987358
X -27.12317304 30.59941038 -31.09056141
X -59.13773605 48.71625067 -7.52709696
X -37.48330326 33.96562941 -11.68795520
X -28.05734540 19.40259611 -25.94744463
X -44.82038822 34.76027150 -39.41229294
X -50.28912846 43.26960187 -20.99193598
X -17.69721518 41.98381420 -42.77850652
X -15.25152019 64.56505067 -18.42038959
X -27.12317304 37.33183004 -33.47452783
X -34.46025800 28.21545563 -11.68795264
X -60.64925868 46.63581339 -18.42038159
X -36.90595299 26.43856094 3.36619855
X -25.61165041 33.66210364 -0.00001503
X -46.33191084 63.77039771 -15.05417888
X -21.65443279 8.01817470 -53.67177692
X -43.30886559 41.98382844 -10.89330432
X 3.95721762 38.12648895 -23.56348957
X -7.91443523 10.89327919 -14.25950079
X -21.65443279 36.53718459 -13.27726529
X -21.65443279 14.75060781 -25.94744255
X -27.12317304 28.02786688 -3.36622288
X -14.31734783 12.97370639 -25.94744175
X -44.82038822 37.33183677 -18.42037743
X -28.05734540 31.88519885 -7.52708944
X -43.88621586 40.20691694 -33.47452911
X -2.44569499 18.42034431 -36.84072975
X -25.61165041 50.30554237 -46.14472060
X -3.37986735 28.02785679 -25.94744848
X -37.48330326 55.75219867 -15.84882977
X -32.01456301 46.63580587 -35.25143340
X -25.61165041 24.35810525 -48.71626491
X -33.52608564 48.71623979 -31.88522397
X -11.87165285 54.16288522 -25.94746015
X -7.33708496 38.61761020 -28.51900910
X -0.93417236 32.37632268 -6.73243518
X -17.69721518 2.57154015 -35.25141373
X -19.20873781 61.68996298 -20.19728973
X -16.18569255 26.43855006 -20.99192846
X -35.97178063 3.36620400 -14.25949743
X -28.63469567 25.94741951 -36.84073311
X -8.84860759 12.17905342 -22.58123103
X -32.94873537 29.31363023 -36.04608014
X -29.56886802 5.44664128 -3.36621279
X -39.92899824 52.38599053 -10.89330896
X -24.10012778 24.84924748 -6.73243183
X -25.61165041 47.73400558 -3.36623168
X -25.61165041 9.30395902 -39.41228157
X -40.86317060 31.88519470 -16.83106606
X -22.58860515 37.82295387 -32.67987358
X -23.16595542 51.10020285 -32.67987951
X -8.84860759 62.48461003 -36.84074942
X -19.20873781 44.06424732 -41.18919851
X -4.89138997 46.14468204 -36.04608766
X -32.01456301 50.79667787 -19.21503792
X -15.25152019 49.51090363 -10.89330767
X -29.56886802 24.66164943 -19.21502625
X -16.76304282 32.37631932 -14.25951039
X -12.80582520 31.09055004 5.14309790
X -3.95721762 23.07233261 -36.84073183
X -32.01456301 52.38597629 -42.77851117
X -28.05734540 14.25949743 3.36620400
X -23.16595542 42.77847389 -31.09056685
X -37.48330326 31.39406415 -32.67987071
X -31.08039065 45.35003659 -15.84882512
X -51.22330082 10.89326911 -36.84072639
X 1.51152263 39.90339531 -12.48261232
X -8.84860759 62.48462012 -14.25952383
X -10.36013022 29.31363695 -20.99192975
X -9.78277995 37.82295387 -32.67987358
X -42.37469323 69.21704234 -10.89331647
X -9.78277995 57.03797963 -9.11640962
X -35.03760827 34.76028574 -7.52709072
X -16.76304282 8.01818895 -21.78657470
X -28.63469567 25.94742959 -14.25950751
X -15.25152019 18.42035518 -12.48260273
X -25.61165041 43.57313181 -23.37589952
X -29.56886802 1.28575999 -40.20693246
X -59.13773605 21.78655166 -43.57315198
X -8.84860759 9.60749903 -19.21501953
X -30.50304038 32.67983422 -50.30557757
X -17.69721518 32.67985598 -1.58932354
X -33.52608564 33.66208267 -46.93936764
X -21.65443279 31.39408174 6.73240670
X -37.48330326 40.69805836 6.73240255
X -2.44569499 60.40418619 -17.62573327
X -28.05734540 49.51090779 -1.58933106
X -29.56886802 46.44821791 -25.15280223
X -6.40291260 2.08042720 -11.68794096
X -25.61165041 22.76881356 -10.09864125
X -25.61165041 9.30396910 -16.83105597
X -17.69721518 30.10829071 -22.58123905
X -21.65443279 50.00201738 -32.67987902
X -48.77760583 27.72432428 -29.31365870
X 5.46874024 31.88518877 -30.10831504
X 3.95721762 25.64390460 -0.79466593
X 7.91443523 31.09054588 -4.16087873
X -28.99151776 44.06425564 -22.58124527
X -37.48330326 55.75220877 6.73239583
X -44.82038822 30.59941118 -29.31365999
X -19.20873781 24.84924827 -4.95553040
X -19.20873781 53.36822138 -46.93937645
X -28.99151776 44.06426236 -7.52709488
X -48.77760583 31.88518461 -39.41229165
X -55.18051843 12.17905679 -15.05415584
X -31.08039065 38.61760348 -43.57315949
X -9.78277995 43.57314190 -0.79467394
X -48.77760583 67.13660506 -21.78660111
X -30.50304038 31.09053916 -19.21502912
X -27.12317304 29.01010108 -31.88521517
X -19.20873781 11.38439294 -36.04607214
X -16.18569255 50.79668459 -4.16088753
X -35.97178063 40.20691278 -42.77850573
X 1.51152263 50.79668459 -4.16088753
X -13.73999756 40.69805164 -8.32174785
X -50.28912846 39.10873819 -18.42037823
X -20.14291017 47.92158682 -28.51901325
X -20.72026044 31.09054252 -11.68795392
X -44.82038822 15.54526750 -14.25950287
X -28.63469567 35.25140957 -6.73243647
X -55.18051843 25.64390460 -0.79466593
X -17.69721518 35.25141036 -4.95553505
X -24.10012778 30.59941533 -20.00968337
X 1.51152263 44.06426236 -7.52709488
X -34.46025800 23.07235358 10.09862079
X -28.05734540 53.67175724 -36.04609102
X -29.56886802 49.01978653 3.36618848
X -15.25152019 53.67175388 -43.57316622
X -42.37469323 9.60749567 -26.74209472
X -27.12317304 19.70612447 -31.88521101
X -11.29430258 38.92113935 -32.67987407
X -46.33191084 35.25141709 10.09861535
X -24.10012778 26.43855342 -13.46485326
X -42.37469323 51.59132668 -31.88522526
X 7.91443523 46.14468876 -20.99193726
X -14.31734783 48.22511260 -40.20695343
X -34.46025800 54.16288443 -27.72436157
X -7.91443523 10.89328255 -6.73242559
X -12.80582520 4.16086449 -0.79465633
X -47.26608320 5.44663792 -10.89328799
X -51.22330082 32.67983758 -42.77850237
X -37.48330326 39.10873819 -18.42037823
X -35.03760827 54.95755243 2.57153134
X -23.16595542 41.18916874 -22.58124399
X -50.28912846 43.26961275 3.36619104
X 7.91443523 10.89328255 -6.73242559
X -39.92899824 46.63580587 -35.25143340
X -47.26608320 33.96561517 -43.57315742
X -8.84860759 47.43046220 -31.09056892
X -16.18569255 42.47494891 -17.62572526
X -24.10012778 44.06425564 -22.58124527
X -7.33708496 42.77848556 -4.95553841
X 3.02304526 46.14469965 3.36618975
X -40.86317060 27.72433180 -12.48260688
X -27.12317304 57.52910267 -10.09865679
X -48.77760583 36.04605918 -17.62572238
X -17.69721518 41.98381836 -33.47452991
X 1.51152263 30.59940702 -38.61763660
X -34.46025800 12.17905006 -30.10830624
X -8.84860759 40.69805084 -10.09864927
X -26.54582277 25.64389709 -17.62571774
X -39.92899824 52.38598045 -33.47453456
X -52.73482345 22.27768637 -18.42037072
X -11.29430258 11.38439630 -28.51899694
X -8.84860759 55.75219788 -17.62573119
X -4.89138997 28.51899149 -0.79466721
X -33.52608564 25.94742287 -29.31365792
X -12.80582520 -4.16087457 -21.78656927
X -20.14291017 42.77848893 2.57153678
X -22.58860515 25.94743295 -6.73243232
X -31.08039065 30.29588540 -17.62571982
X -40.86317060 53.67176396 -20.99194062
X -46.33191084 52.87710763 -25.15280510
X -11.29430258 23.86700319 -0.79466513
X -29.56886802 24.05458778 -18.42037150
X -39.92899824 50.79668043 -13.46486414
X -2.44569499 42.77846380 -53.67179244
X -21.65443279 47.43047308 -6.73244191
X -18.27456545 36.04604910 -40.20694798
X -13.73999756 43.26959851 -28.51901118
X 3.95721762 27.23319294 -46.93936477
X -9.78277995 25.94743295 -6.73243232
X -41.44052087 31.09053837 -20.99193054
X -39.92899824 61.68996379 -18.42038831
X -55.18051843 27.23319294 -46.93936477
X -19.20873781 33.17096972 -23.37589488
X -7.91443523 39.41225982 -39.41229501
X -33.52608564 26.92968140 -3.36622239
X -13.73999756 38.12648974 -21.78658815
X -20.72026044 25.94742959 -14.25950751
X -16.76304282 28.21545900 -4.16087743
X -51.22330082 32.67984766 -20.19727677
X -30.50304038 39.41225645 -46.93937022
X -10.36013022 3.36619391 -36.84072302
X -13.73999756 38.12648638 -29.31366335
X -43.88621586 27.72432765 -21.78658351
X -25.61165041 43.57311677 -57.03800316
X -32.01456301 54.95752731 -53.67179788
X -40.86317060 14.25948319 -28.51899822
X -12.80582520 63.77039771 -15.05417888
X -44.82038822 19.70612447 -31.88521101
X -25.61165041 36.84071966 -4.16088129
X -28.05734540 45.35003659 -15.84882512
X -12.80582520 59.60952235 -38.61764957
X -24.10012778 22.27767549 -42.77849772
X -36.90595299 19.70613535 -7.52708400
X -48.77760583 36.04605245 -32.67987278
X -15.25152019 40.20692702 -10.89330351
X -31.08039065 41.18916122 -39.41229581
X -48.77760583 27.72433101 -14.25950830
X -38.41747561 31.09053165 -36.04608093
X 1.51152263 8.81284527 -17.62571023
X -35.03760827 22.27767549 -42.77849772
X -42.37469323 23.07234685 -4.95552961
X -24.67747805 43.26959851 -28.51901118
X -23.16595542 18.42036527 10.09862286
X -29.56886802 27.23321055 -7.52708736
X -35.97178063 16.83103837 -30.10830831
X -48.77760583 62.97574394 -13.46486958
X -43.88621586 33.47449807 -29.31366127
X -33.52608564 46.14469628 -4.16088544
X -23.16595542 20.99190621 -23.37588944
X -19.20873781 -2.08043392 -3.36620944
X -41.44052087 52.87710842 -23.37590368
X -39.92899824 54.95754571 -12.48261905
X -16.18569255 15.54525327 -46.14470508
X -13.73999756 27.23319294 -46.93936477
X -10.36013022 10.09861950 -25.94744047
X -33.52608564 13.46482943 -26.92968892
X -17.69721518 17.62568382 -50.30557085
X -0.93417236 47.43047308 -6.73244191
X -30.50304038 39.41227069 -15.05416800
X -16.18569255 41.49270798 -4.16088337
X -24.67747805 40.69804077 -32.67987486
X -8.84860759 32.37631675 -20.00968416
X -37.48330326 54.16289531 -3.36623455
X -12.80582520 46.14468125 -37.82298908
X -23.16595542 41.18916795 -24.35814541
X -11.87165285 54.16288186 -33.47453535
X -20.72026044 10.89326911 -36.84072639
X -22.58860515 35.25139949 -29.31366207
X -3.95721762 12.17906351 -0.00000544
X -54.24634608 25.94742623 -21.78658271
X -32.94873537 29.31363358 -28.51900494
X -13.73999756 29.80475069 -42.77850109
X -32.01456301 7.22353934 -10.89328879
X -24.10012778 19.70613535 -7.52708400
X -34.46025800 40.69804077 -32.67987486
X -10.36013022 34.45675404 -9.11639953
X -27.12317304 26.43855422 -11.68795184
X -15.25152019 46.93935261 -0.00002096
X -11.29430258 50.79667787 -19.21503792
X -17.69721518 46.14467869 -43.57316285
X -39.92899824 41.49270798 -4.16088337
X -28.63469567 31.09054173 -13.46485534
X -30.50304038 20.19724909 -29.31365534
X -17.69721518 9.30396910 -16.83105597
X -43.88621586 23.56346317 -20.99192717
X -25.61165041 59.60952650 -29.31367295
X -11.29430258 59.11841612 -0.00002640
X -0.93417236 40.69804828 -15.84882305
X -46.33191084 35.25140621 -14.25951167
X -24.67747805 20.50078496 -18.42036991
X 3.95721762 27.23319630 -39.41228958
X -32.01456301 54.95753068 -46.14472269
X -32.01456301 52.38597964 -35.25143597
X -16.76304282 43.26959851 -28.51901118
X -37.48330326 39.10873067 -35.25143005
X -21.65443279 24.05458443 -25.94744670
X -52.73482345 35.74253419 -4.16088080
X -4.89138997 37.82295803 -23.37589696
X 11.87165285 16.33992047 -17.62571358
X -44.82038822 59.11840524 -24.35815341
X -17.69721518 31.09053580 -26.74210431
X -43.88621586 52.08244793 -36.84074478
X -48.77760583 10.09861614 -33.47451567
X -21.65443279 21.48302668 -30.10831039
X -40.86317060 38.61761357 -20.99193390
X -47.26608320 58.32375227 -20.99194270
X -35.97178063 18.42035518 -12.48260273
X -42.37469323 58.32376315 3.36618432
X -43.88621586 14.25948991 -13.46484783
X -14.31734783 22.27769310 -3.36622031
X -11.29430258 30.59941118 -29.31365999
X -23.16595542 10.09860862 -50.30556749
X -29.56886802 25.64390124 -8.32174113
X -16.76304282 32.37632011 -12.48260897
X -38.41747561 47.73398797 -42.77850909
X -12.80582520 10.89327584 -21.78657599
X -40.86317060 23.56346733 -11.68795056
X -31.08039065 34.45674236 -35.25142797
X -50.28912846 27.23319294 -46.93936477
X -15.25152019 56.24331499 -31.88522733
X -23.16595542 25.15277326 -18.42037200
X -43.88621586 31.88519885 -7.52708944
X -23.16595542 5.93776175 -10.09863374
X -8.84860759 69.21704571 -3.36624128
X -21.65443279 40.69805084 -10.09864927
X -32.01456301 68.42238522 -16.83108238
X -46.33191084 6.73241471 -13.46484446
X -28.05734540 57.83262172 -36.84074735
X -32.01456301 35.74252332 -28.51900781
X -7.33708496 36.04605997 -15.84882097
X -39.35164797 43.26960266 -19.21503456
X -19.20873781 54.95754155 -21.78659567
X -35.97178063 49.51088939 -42.77850989
X -29.56886802 25.64390460 -0.79466593
X -35.97178063 46.93933837 -31.88522318
X -21.65443279 73.37790346 -19.21504801
X -25.61165041 41.00156991 -36.84073984
X -8.84860759 12.17905679 -15.05415584
X -44.82038822 29.01010939 -13.27726193
X -23.16595542 10.09861870 -27.72434189
X -35.03760827 23.86699231 -25.15279215
X -17.69721518 28.51897726 -32.67986942
X -34.46025800 23.07234606 -6.73243103
X -21.65443279 14.75060444 -33.47451775
X -55.18051843 54.16288522 -25.94746015
X -17.69721518 29.50122235 -36.84073470
X -43.88621586 22.58121551 -22.58123568
X 0.00000000 20.19725660 -12.48260353
X -59.13773605 48.71624730 -15.05417216
X -52.73482345 15.54526078 -29.31365327
X -50.28912846 33.96562190 -28.51900702
X -30.50304038 35.25141709 10.09861535
X -35.97178063 45.35003244 -25.15280174
X -23.16595542 23.56346060 -26.74210096
X -27.12317304 53.36823146 -24.35815085
X -17.69721518 32.67985261 -9.11639874
X -34.46025800 16.33992126 -15.84881216
X -8.84860759 25.64390124 -8.32174113
X -38.41747561 33.66210364 -0.00001503
X -13.73999756 8.01818479 -31.09055132
X -16.76304282 16.33991374 -32.67986398
X -15.25152019 31.88519212 -22.58123984
X -18.27456545 34.45674652 -25.94745135
X -42.37469323 21.48303676 -7.52708479
X -29.56886802 24.05458443 -25.94744670
X -4.89138997 25.94742959 -14.25950751
X -39.92899824 44.06426652 1.77688174
X -21.65443279 39.10873482 -25.94745343
X -7.33708496 46.93934589 -15.05417136
X -42.37469323 43.26960187 -20.99193598
X -32.01456301 37.33183004 -33.47452783
X -25.61165041 13.46483359 -17.62571230
X -16.76304282 39.10874491 -3.36622783
X -11.29430258 34.76027822 -24.35814254
X -39.92899824 31.58166299 -18.42037487
X 1.51152263 12.97371311 -10.89329136
X -28.63469567 44.55537946 -21.78659103
X -40.86317060 14.25949407 -4.16087120
X -50.28912846 27.23319967 -31.88521437
X -51.22330082 63.77038347 -46.93938109
X -48.77760583 25.15276239 -42.77849901
X -19.20873781 37.33183756 -16.64347602
X -21.65443279 51.59133756 -7.52709823
X -17.69721518 46.14468956 -19.21503584
X -25.61165041 32.67983422 -50.30557757
X -12.80582520 74.66367690 -29.31367967
X -8.84860759 38.12648895 -23.56348957
X -28.05734540 27.72431341 -53.67178572
X -17.69721518 44.55538619 -6.73244062
X -29.56886802 29.80475741 -27.72435069
X -41.44052087 57.03798971 13.46481598
X -23.16595542 38.61762523 5.14309454
X -28.63469567 31.09052828 -43.57315614
X -46.33191084 41.98381756 -35.25143133
X -47.84343347 29.01009436 -46.93936557
X -2.44569499 31.88519549 -15.05416463
X -39.35164797 27.23320639 -16.83106398
X -28.05734540 40.20692287 -20.19728013
X -21.65443279 27.23319630 -39.41228958
X -16.76304282 29.80475406 -35.25142589
X -19.20873781 53.36822474 -39.41230124
X -20.72026044 33.66209355 -22.58124063
X -25.61165041 46.14470044 5.14309118
X -32.01456301 44.06425484 -24.35814669
X 0.00000000 31.09054925 3.36619648
X -11.29430258 23.86698559 -40.20694254
X -25.61165041 25.94743375 -4.95553089
X -34.46025800 29.80476078 -20.19727549
X -44.82038822 22.27768717 -16.64346930
X -25.61165041 31.09054252 -11.68795392
X -9.78277995 30.10829743 -7.52708864
X 7.91443523 31.09054252 -11.68795392
X -3.95721762 51.59132332 -39.41230045
X -28.05734540 25.15278414 5.93775502
X -59.13773605 52.87711100 -17.62572991
X -15.25152019 27.72431341 -53.67178572
X -17.69721518 35.25140621 -14.25951167
X -48.77760583 56.24332171 -16.83107694
X -6.40291260 30.59940782 -36.84073519
X -7.33708496 49.51089691 -25.94745807
X 0.00000000 48.71625403 -0.00002176
X -13.73999756 31.39407087 -17.62572031
X -42.37469323 44.85891196 -18.42038079
X -11.87165285 40.69805084 -10.09864927
X -14.31734783 22.27767965 -33.47452111
X -44.82038822 8.81284943 -8.32173361
X -28.05734540 22.58121215 -30.10831088
X -20.14291017 27.72432428 -29.31365870
X -20.72026044 21.78655503 -36.04607678
X -17.69721518 16.03638461 -28.51899901
X -46.33191084 44.55537274 -36.84074142
X -21.65443279 23.07232846 -46.14470845
X -19.20873781 22.27768717 -16.64346930
X -3.37986735 22.27768557 -20.19727212
X -24.10012778 48.22511596 -32.67987823
X -7.33708496 49.51090107 -16.64348145
X -11.29430258 11.38439966 -20.99192174
X -47.84343347 15.54525327 -46.14470508
X -16.76304282 23.07234606 -6.73243103
X -35.97178063 23.56345644 -36.04607757
X -11.29430258 23.86699566 -17.62571695
X -18.27456545 52.08245466 -21.78659438
X -2.44569499 36.04605502 -26.92969901
X -35.97178063 60.40417610 -40.20695886
X -20.72026044 59.60953659 -6.73244735
X -34.46025800 38.12648895 -23.56348957
X -29.56886802 59.91306572 -10.89331232
X -46.33191084 48.71624730 -15.05417216
X -42.37469323 31.39407087 -17.62572031
X -25.61165041 24.35812365 -7.52708608
X -31.08039065 42.77847132 -36.84074063
X -21.65443279 9.60750240 -11.68794432
X -7.91443523 48.71625403 -0.00002176
X -27.12317304 38.92114607 -17.62572367
X -37.48330326 40.69805164 -8.32174785
X -35.97178063 62.97574394 -13.46486958
X -8.84860759 62.48461339 -29.31367423
X -29.56886802 33.96563277 -4.16088001
X -29.56886802 27.23320382 -22.58123776
X -28.99151776 30.59942126 -6.73243439
X -42.37469323 31.39406751 -25.15279550
X -17.69721518 30.10829743 -7.52708864
X -24.67747805 27.23319294 -46.93936477
X -38.41747561 43.57312350 -41.98385276
X -17.69721518 41.98382844 -10.89330432
X -33.52608564 51.28780091 -20.19728509
X -25.61165041 41.98383260 -1.58932769
X -38.41747561 46.14467117 -60.40421468
X -38.41747561 10.89328335 -4.95552417
X -46.33191084 6.73240799 -28.51899486
X -43.30886559 17.62569134 -33.47451903
X 5.46874024 38.61761020 -28.51900910
X -0.93417236 23.07234606 -6.73243103
X -29.56886802 28.21544139 -43.57315484
X -8.84860759 5.44664128 -3.36621279
X -16.76304282 20.50079168 -3.36621952
X -25.61165041 57.03798636 5.93774078
X -42.37469323 62.48461675 -21.78659903
X -23.16595542 46.93934925 -7.52709616
X -48.77760583 62.97573386 -36.04609517
X -52.73482345 50.79667371 -28.51901453
X -38.41747561 35.25141709 10.09861535
X -23.16595542 31.88519133 -24.35814126
X -12.80582520 55.44866875 -13.46486622
X -4.89138997 10.89327919 -14.25950079
X -42.37469323 23.07233934 -21.78658142
X -35.97178063 19.40259948 -18.42036942
X -34.46025800 50.00202074 -25.15280382
X -2.44569499 23.56347405 3.36619984
X -20.72026044 48.71624058 -30.10832255
X -60.64925868 33.17096892 -25.15279631
X -23.16595542 36.04605245 -32.67987278
X -19.20873781 23.86699310 -23.37589073
X -37.48330326 35.55493871 -10.89330144
X -43.88621586 41.18916538 -30.10831919
X -35.97178063 45.35003659 -15.84882512
X 1.51152263 19.70613198 -15.05415920
X -12.80582520 41.98382587 -16.64347809
X -32.94873537 56.24331915 -22.58125071
X -43.88621586 34.45674652 -25.94745135
X -0.93417236 27.23320639 -16.83106398
X -17.69721518 40.39451835 -13.46485949
X -47.26608320 65.05617450 -17.62573534
X -21.65443279 45.84115962 -16.83107229
X -2.44569499 31.88519885 -7.52708944
X -41.44052087 46.14468956 -19.21503584
X -2.44569499 45.35003659 -15.84882512
X -46.33191084 46.14468876 -20.99193726
X -32.01456301 -2.08044737 -33.47451022
X -42.37469323 27.23319630 -39.41228958
X -24.67747805 51.59132748 -30.10832384
X -25.61165041 2.57154430 -25.94743711
X -11.87165285 54.16289531 -3.36623455
X -46.33191084 32.67984431 -27.72435197
X -18.27456545 56.24332922 -0.00002512
X -3.95721762 33.96562525 -20.99193182
X -33.52608564 13.46482349 -40.20693790
X -29.56886802 16.33991790 -23.37588737
X -24.10012778 34.76028238 -15.05416593
X -9.78277995 43.57313853 -8.32174913
X -32.01456301 29.01010445 -24.35813997
X 15.82887046 28.51898062 -25.15279422
X -30.50304038 28.51896638 -57.03799644
X -50.28912846 29.80476157 -18.42037407
X -9.78277995 26.92967053 -27.72434941
X 5.46874024 45.35004667 6.73240047
X -9.78277995 40.39450826 -36.04608509
X -32.01456301 22.27767965 -33.47452111
X -21.65443279 53.18064013 -21.78659487
X -37.48330326 43.26959515 -36.04608637
X -39.92899824 19.70612111 -39.41228621
X -41.44052087 13.46482943 -26.92968892
X -25.61165041 24.35809854 -63.77041531
X 3.02304526 24.35810941 -39.41228829
X -50.28912846 50.00201738 -32.67987902
X -41.44052087 25.94742287 -29.31365792
X -19.20873781 50.79668795 3.36618767
X -35.97178063 46.93933916 -30.10832176
X -19.20873781 13.95596493 -0.00000624
X -21.65443279 59.91305564 -33.47453791
X -42.37469323 54.16289531 -3.36623455
X -21.65443279 25.64388284 -49.51091996
X -19.20873781 34.76028159 -16.83106733
X -40.86317060 56.24331915 -22.58125071
X -11.29430258 44.06425564 -22.58124527
X -21.65443279 43.26960187 -20.99193598
X -37.48330326 54.16289195 -10.89330975
X -12.80582520 20.19725245 -21.78658015
X -4.89138997 43.57312429 -40.20695135
X -24.10012778 53.36822474 -39.41230124
X -24.67747805 36.53717707 -30.10831711
X 3.02304526 32.67984174 -33.47452576
X -32.01456301 57.52908506 -49.51093420
X -30.50304038 15.05414031 -22.58123232
X 11.87165285 27.23319967 -31.88521437
X -59.13773605 24.35811693 -22.58123647
X -47.26608320 12.17905342 -22.58123103
X -20.14291017 42.77847805 -21.78659022
X -31.08039065 49.51090700 -3.36623248
X -24.10012778 22.27767965 -33.47452111
X -34.46025800 60.89530666 -24.35815421
X -8.84860759 32.37631595 -21.78658558
X -4.89138997 39.41227742 -0.00001760
X -10.36013022 42.77847468 -29.31366543
X -50.28912846 18.91147822 -13.46484990
X -27.12317304 34.76026815 -46.93936813
X -37.48330326 25.64389373 -25.15279294
X -43.30886559 52.87711100 -17.62572991
X -2.44569499 3.36620400 -14.25949743
X -8.84860759 29.80476157 -18.42037407
X -39.92899824 18.11681181 -40.20693998
X -9.78277995 25.94741951 -36.84073311
X -38.41747561 37.82295724 -25.15279838
X -32.01456301 39.90339788 -6.73243855
X -21.65443279 66.64548796 -7.52710496
X -13.73999756 20.50078831 -10.89329471
X -14.31734783 39.90338779 -29.31366415
X -23.16595542 56.24332171 -16.83107694
X -59.13773605 10.89326911 -36.84072639
X -32.01456301 4.65196735 -46.93935470
X -38.41747561 47.73398462 -50.30558429
X -43.88621586 16.83104430 -16.83105933
X -38.41747561 54.46641693 -24.35815134
X -15.25152019 42.77846380 -53.67179244
X -39.92899824 24.84924076 -21.78658222
X -3.95721762 40.69805084 -10.09864927
X -26.54582277 43.26960939 -4.16088416
X -39.92899824 33.17096141 -41.98384812
X -15.25152019 38.61762444 3.36619312
X -56.69204106 52.08246138 -6.73244399
X -24.10012778 33.17097309 -15.84881968
X -23.16595542 20.99189790 -41.98384268
X -20.72026044 59.60952986 -21.78659775
X -28.05734540 29.31363774 -19.21502833
X 1.51152263 19.70612111 -39.41228621
X -25.61165041 72.09212587 -18.42039296
X -35.97178063 10.09860862 -50.30556749
X -19.20873781 17.13458432 3.36620272
X -23.16595542 62.97573722 -28.51901998
X -51.22330082 63.77039019 -31.88523070
X -50.28912846 44.85891533 -10.89330560
X -12.80582520 21.78655166 -43.57315198
X -22.58860515 39.41227742 -0.00001760
X -60.64925868 33.17096220 -40.20694670
X -33.52608564 59.60953322 -14.25952254
X -28.05734540 56.24332171 -16.83107694
X -24.10012778 46.63580251 -42.77850861
X -21.65443279 42.28735007 -31.88522110
X -25.61165041 46.14469292 -11.68796065
X -26.54582277 20.50077823 -33.47452032
X -34.46025800 25.64390045 -10.09864255
X -50.28912846 43.26960266 -19.21503456
X -47.26608320 40.69804412 -25.15279966
X -17.69721518 48.71624395 -22.58124736
X -4.89138997 21.78656511 -13.46485118
X -15.25152019 30.29588282 -23.37589360
X -14.31734783 12.97371647 -3.36621615
X -37.48330326 23.07233182 -38.61763325
X -19.20873781 70.01168523 -36.84075279
X -23.16595542 25.15276911 -27.72434862
X 0.00000000 57.03796124 -50.30558844
X -30.50304038 50.30555325 -21.78659359
X -39.92899824 28.02785343 -33.47452367
X -46.33191084 50.30555325 -21.78659359
X -28.05734540 18.42035518 -12.48260273
X -14.31734783 57.52909594 -25.15280718
X -16.76304282 9.60750912 3.36620607
X -28.05734540 12.67018397 -6.73242638
X -50.28912846 58.32375643 -11.68796608
X -4.89138997 52.87711100 -17.62572991
X -33.52608564 39.41228493 16.83103422
X -42.37469323 49.01977901 -13.46486335
X 1.51152263 37.33182589 -42.77850445
X -48.77760583 60.40417610 -40.20695886
X -31.08039065 29.31364110 -11.68795313
X 1.51152263 30.59941038 -31.09056141
X -50.28912846 58.32375979 -4.16089088
X -17.69721518 31.09052076 -60.40420795
X -35.97178063 10.09861950 -25.94744047
X -21.65443279 23.07232510 -53.67178364
X -32.01456301 20.68837708 -19.21502447
X -32.01456301 8.81283519 -40.20693582
X -47.26608320 33.96562525 -20.99193182
X 5.46874024 45.35003244 -25.15280174
X -17.69721518 26.92966796 -33.47452318
X -36.90595299 30.59942126 -6.73243439
X -8.84860759 29.80476493 -10.89329887
X -3.95721762 43.26959931 -26.74210976
X -27.12317304 44.06424476 -46.93937229
X -52.73482345 39.90339788 -6.73243855
X -17.69721518 25.94744047 10.09861950
X -19.20873781 39.90338028 -46.14471596
X 1.51152263 41.49269374 -36.04608558
X -51.22330082 28.51898734 -10.09864383
X -24.10012778 12.97371311 -10.89329136
X -7.33708496 29.31364447 -4.16087792
X -25.61165041 25.94742959 -14.25950751
X -38.41747561 2.57155439 -3.36621152
X -48.77760583 25.15277326 -18.42037200
X -35.97178063 30.29588619 -15.84881840
X -11.29430258 61.68996714 -10.89331311
X -47.26608320 29.80476157 -18.42037407
X -12.80582520 52.87710763 -25.15280510
X 7.91443523 41.98382844 -10.89330432
X -15.25152019 25.15278750 13.46483022
X -39.92899824 33.17096476 -34.45677292
X -16.76304282 9.60749903 -19.21501953
X -8.84860759 1.28576335 -32.67985726
X -27.12317304 44.06426987 9.30395694
X -20.72026044 13.46482686 -32.67986271
X -32.01456301 49.81442190 -39.41229966
X -23.16595542 36.04604494 -49.51092460
X -26.54582277 33.96562941 -11.68795520
X -39.92899824 48.22512269 -17.62572782
X -7.33708496 27.72433437 -6.73243311
X -24.10012778 44.06427324 16.83103214
X -15.25152019 40.20692366 -18.42037872
X -39.35164797 27.23320303 -24.35813918
X -25.61165041 59.60952314 -36.84074815
X -16.76304282 18.91147565 -19.21502368
X -11.29430258 31.58166299 -18.42037487
X -20.72026044 43.57313437 -17.62572575
X -43.30886559 21.78656511 -13.46485118
X -34.46025800 16.33991374 -32.67986398
X -35.97178063 51.10020621 -25.15280431
X -21.65443279 21.48303004 -22.58123519
X -30.50304038 50.30555997 -6.73244319
X -28.05734540 22.58122560 -0.00001008
X 7.91443523 37.82297148 6.73240383
X -59.13773605 39.41226989 -16.83106942
X -39.92899824 29.01010187 -30.10831375
X -52.73482345 19.70613198 -15.05415920
X -2.44569499 38.61761772 -11.68795728
X -21.65443279 54.16288779 -20.19728636
X -19.20873781 33.17096892 -25.15279631
X -12.80582520 39.41226397 -30.10831839
X -13.73999756 47.43047308 -6.73244191
X 0.00000000 57.03797131 -27.72436285
X -56.69204106 42.77848477 -6.73243983
X -44.82038822 15.54527087 -6.73242767
X -48.77760583 20.99190206 -32.67986606
X -38.41747561 9.30396654 -22.58122975
X -29.56886802 50.00200987 -49.51093083
X -24.67747805 54.16288186 -33.47453535
X -32.01456301 18.11681516 -32.67986478
X -15.25152019 44.36777726 -43.57316206
X -54.24634608 35.25140957 -6.73243647
X -11.29430258 59.11840267 -30.10832720
X -14.31734783 61.68996379 -18.42038831
X -28.05734540 38.61761693 -13.46485870
X -13.73999756 16.33991711 -25.15278878
X -19.20873781 52.38597629 -42.77851117
X -14.31734783 30.59941790 -14.25950959
X -41.44052087 44.55538619 -6.73244062
X -24.67747805 29.80475485 -33.47452447
X -29.56886802 51.59133340 -16.83107486
X -21.65443279 29.80476157 -18.42037407
X -12.80582520 36.84071215 -20.99193310
X -43.30886559 59.60953322 -14.25952254
X -34.46025800 16.33992047 -17.62571358
X -6.40291260 39.90339788 -6.73243855
X -12.80582520 57.03796796 -35.25143805
X -4.89138997 15.05415039 -0.00000672
X -7.91443523 24.35811357 -30.10831167
X -13.73999756 23.07233598 -29.31365662
X -27.12317304 22.27767549 -42.77849772
X -21.65443279 23.07233598 -29.31365662
X -17.69721518 41.00158335 -6.73243904
X -51.22330082 57.03796460 -42.77851325
X -40.86317060 67.13661178 -6.73245072
X -47.84343347 34.76028238 -15.05416593
X -8.84860759 31.39406751 -25.15279550
X -24.10012778 8.81284863 -10.09863503
X -50.28912846 40.69805836 6.73240255
X -8.84860759 29.80475069 -42.77850109
X 3.02304526 46.14469628 -4.16088544
X 3.95721762 58.32374891 -28.51901790
X -42.37469323 36.53718300 -16.83106814
X -4.89138997 48.71625067 -7.52709696
X -13.73999756 12.17904927 -31.88520766
X 0.00000000 48.71624058 -30.10832255
X -20.14291017 29.31364110 -11.68795313
X -32.01456301 23.86700319 -0.79466513
X -20.14291017 38.61760348 -43.57315949
X -11.29430258 54.95754235 -20.00969425
X -19.20873781 23.86698895 -32.67986735
X -11.29430258 31.58166971 -3.36622447
X -51.22330082 -0.00000672 -15.05415039
X 7.91443523 41.98381836 -33.47452991
X -37.48330326 39.10873403 -27.72435485
X -39.92899824 46.63579914 -50.30558380
X -19.20873781 30.59942126 -6.73243439
X -18.27456545 42.77847805 -21.78659022
X 3.02304526 31.09053500 -28.51900573
X -25.61165041 41.98381420 -42.77850652
X -25.61165041 32.67985598 -1.58932354
X -6.40291260 52.38597293 -50.30558637
X -23.16595542 29.31363358 -28.51900494
X -15.25152019 11.68794304 6.73241551
X -19.20873781 41.49270125 -19.21503377
X -10.36013022 25.15276239 -42.77849901
X -20.14291017 41.18915787 -46.93937101
X -59.13773605 52.87710091 -40.20695550
X -7.33708496 37.02830762 -14.25951246
X -48.77760583 10.09862622 -10.89329007
X -15.25152019 40.20690942 -50.30558093
X -48.77760583 20.99190878 -17.62571567
X -43.88621586 20.99190462 -26.92969228
X -35.97178063 67.13659834 -36.84075150
X -35.97178063 53.67177484 3.36618639
X -10.36013022 67.13659834 -36.84075150
X -7.33708496 31.88519549 -15.05416463
X -15.82887046 48.71625403 -0.00002176
X -50.28912846 36.53719052 -0.00001631
X -10.36013022 30.29588619 -15.84881840
X -32.01456301 28.02785343 -33.47452367
X -39.92899824 50.79668459 -4.16088753
X -41.44052087 41.98383181 -3.36622911
X 0.00000000 10.89326911 -36.84072639
X -38.41747561 24.35812781 1.77689054
X -30.50304038 44.55537946 -21.78659103
X -26.54582277 25.64389036 -32.67986813
X -35.97178063 25.15276574 -35.25142381
X -29.56886802 29.80477581 13.46482814
X -29.56886802 39.10872395 -50.30558044
X -11.29430258 39.90339195 -20.00968752
X -25.61165041 8.32172560 -9.11638787
X -14.31734783 50.79667451 -26.74211311
X -36.90595299 37.33182589 -42.77850445
X -37.48330326 28.21544811 -28.51900445
X -11.29430258 34.76027566 -30.10831632
X -20.14291017 45.35002571 -40.20695214
X -19.20873781 33.17098732 16.03638253
X -43.30886559 28.51898734 -10.09864383
X -28.05734540 25.15276911 -27.72434862
X -27.12317304 8.81283855 -32.67986062
X -37.48330326 39.10874491 -3.36622783
X -35.39443036 28.51897390 -40.20694463
X -3.37986735 48.22513357 6.73239918
X -31.08039065 20.99189454 -49.51091788
X -46.33191084 20.19725581 -14.25950495
X -52.73482345 46.63581339 -18.42038159
X -52.73482345 57.52909258 -32.67988238
X -17.69721518 50.30555740 -12.48261697
X -16.18569255 48.22513020 -0.79467601
X -23.16595542 27.72432428 -29.31365870
X -15.25152019 60.40419371 -0.79468145
X -37.48330326 33.96562269 -26.74210560
X -21.65443279 29.80475741 -27.72435069
X -23.16595542 42.77846717 -46.14471725
X -21.65443279 43.26959772 -30.29591260
X -20.14291017 41.18916795 -24.35814541
X -54.24634608 48.71625403 -0.00002176
X -32.01456301 29.01010860 -15.05416335
X -28.63469567 52.87711852 -0.79467809
X -24.10012778 26.43855006 -20.99192846
X -2.44569499 29.31363695 -20.99192975
X -22.58860515 37.82296396 -10.09864798
X -30.50304038 13.46482349 -40.20693790
X -54.24634608 17.62569390 -27.72434525
X -39.92899824 33.17096220 -40.20694670
X -21.65443279 43.26959931 -26.74210976
X -21.65443279 29.80476909 -1.58932226
X -25.61165041 57.03797212 -25.94746144
X -11.29430258 41.49271133 3.36619183
X -37.48330326 25.64389036 -32.67986813
X -35.97178063 51.10020958 -17.62572911
X -24.10012778 38.92114607 -17.62572367
X -41.44052087 26.92967053 -27.72434941
X -21.65443279 54.16288443 -27.72436157
X -19.20873781 54.95755243 2.57153134
X -9.78277995 26.92966044 -50.30557500
X -19.20873781 33.17096220 -40.20694670
X -16.76304282 47.43045963 -36.84074270
X -40.86317060 36.04605166 -34.45677420
X -4.89138997 46.14468541 -28.51901246
X -47.84343347 42.47494219 -32.67987565
X -16.18569255 37.33183004 -33.47452783
X -12.80582520 35.25141709 10.09861535
X -19.20873781 46.63580666 -33.47453199
X -16.76304282 9.60749567 -26.74209472
X -31.08039065 45.35002907 -32.67987694
X -36.90595299 26.43855422 -11.68795184
X -46.33191084 57.03797212 -25.94746144
X -13.73999756 49.01977981 -11.68796193
X -7.33708496 20.99189869 -40.20694126
X -20.72026044 21.78656511 -13.46485118
X -31.08039065 14.25947983 -36.04607341
X -38.41747561 9.30397326 -7.52707936
X -46.33191084 41.98383181 -3.36622911
X -3.95721762 33.96561517 -43.57315742
X -39.92899824 33.17097565 -10.09864590
X -42.37469323 8.01818557 -29.31364991
X -16.76304282 36.53719052 -0.00001631
X -25.61165041 2.57155103 -10.89328671
X -21.65443279 21.48301916 -46.93936221
X 3.02304526 39.41226397 -30.10831839
X -25.61165041 17.62569727 -20.19727005
X -8.84860759 16.33992799 -0.79466177
X -36.90595299 26.43855085 -19.21502704
X -6.40291260 50.79667035 -36.04608974
X -32.01456301 70.01168859 -29.31367759
X -20.14291017 29.31364031 -13.46485454
X -33.52608564 15.05414704 -7.52708192
X -31.08039065 36.04604910 -40.20694798
X -47.84343347 42.47494891 -17.62572526
X -24.67747805 25.64390045 -10.09864255
X -25.61165041 39.41225565 -48.71627164
X -23.16595542 7.52707520 -0.00000336
X -10.36013022 67.13660506 -21.78660111
X -12.80582520 9.30397661 -0.00000416
X -32.94873537 25.15276239 -42.77849901
X -20.72026044 35.25140701 -12.48261025
X -32.01456301 37.33183598 -20.19727885
X -21.65443279 45.84114617 -46.93937308
X -47.26608320 43.26959931 -26.74210976
X -21.65443279 23.07234350 -12.48260481
X -7.33708496 20.99190878 -17.62571567
X -25.61165041 32.67984926 -16.64347394
X -56.69204106 14.25948319 -28.51899822
X -6.40291260 11.38441054 3.36620528
X -27.12317304 8.81284191 -25.15278543
X -50.28912846 27.23319630 -39.41228958
X -11.29430258 24.84924748 -6.73243183
X -44.82038822 54.95754492 -14.25952047
X -17.69721518 67.93125883 -23.37591041
X -20.14291017 34.45674988 -18.42037615
X -41.44052087 39.41227405 -7.52709281
X -44.82038822 33.17096972 -23.37589488
X -28.05734540 19.40260284 -10.89329422
X 3.95721762 32.37632347 -4.95553377
X -6.40291260 52.38597964 -35.25143597
X -11.29430258 35.74251995 -36.04608302
X -8.84860759 38.12648558 -31.09056477
X -25.61165041 10.89327919 -14.25950079
X -44.82038822 15.54526830 -12.48260145
X -30.50304038 48.71623643 -39.41229917
X -32.01456301 34.76027902 -22.58124112
X -38.41747561 26.92968556 5.93775423
X -21.65443279 20.50078911 -9.11639329
X -35.97178063 -0.79467394 -43.57314190
X -28.05734540 -0.79467057 -36.04606669
X -28.05734540 5.93775838 -17.62570894
X -42.37469323 50.00202074 -25.15280382
X -21.65443279 65.05617787 -10.09866014
X -16.76304282 25.64390460 -0.79466593
X -35.97178063 52.08244715 -38.61764620
X -47.84343347 29.01010108 -31.88521517
X -12.80582520 46.14469965 3.36618975
X -16.76304282 65.05617787 -10.09866014
X 1.51152263 46.63580666 -33.47453199
X -28.05734540 20.99190957 -15.84881425
X -9.78277995 32.67984174 -33.47452576
X -44.82038822 30.59940366 -46.14471180
X -23.16595542 23.56345308 -43.57315277
X -17.69721518 43.57314526 6.73240127
X -6.40291260 11.38440718 -4.16086992
X -19.20873781 37.33182589 -42.77850445
X -24.10012778 37.33183341 -25.94745264
X -2.44569499 67.13660842 -14.25952591
X -21.65443279 33.96561101 -52.87713404
X -38.41747561 31.09054252 -11.68795392
X -16.76304282 54.16288522 -25.94746015
X -26.54582277 58.32375979 -4.16089088
X -27.12317304 53.36822474 -39.41230124
X -28.05734540 40.20693038 -3.36622832
X -46.33191084 39.41227405 -7.52709281
X 1.51152263 29.01011197 -7.52708816
X -8.84860759 51.59133004 -24.35815006
X -24.10012778 31.58165963 -25.94745006
X -19.20873781 37.33182253 -50.30557964
X -42.37469323 47.43047388 -4.95554049
X -33.52608564 26.92966716 -35.25142460
X -34.46025800 29.80476157 -18.42037407
X -25.61165041 25.94743295 -6.73243232
X 7.91443523 52.87710763 -25.15280510
X -6.40291260 34.76026815 -46.93936813
X -20.72026044 52.87710427 -32.67988030
X -28.05734540 46.93934925 -7.52709616
X -40.86317060 25.15276239 -42.77849901
X -36.90595299 54.95754492 -14.25952047
X -24.10012778 30.59940702 -38.61763660
X -19.20873781 42.47494891 -17.62572526
X -11.29430258 46.63581339 -18.42038159
X -47.84343347 46.63581339 -18.42038159
X -42.37469323 36.53718795 -5.75019010
X -25.61165041 20.19726332 2.57154687
X -0.93417236 25.64389373 -25.15279294
X -39.92899824 12.97371647 -3.36621615
X -35.97178063 36.04606669 -0.79467057
X -25.61165041 2.57154687 -20.19726332
X -67.05217128 41.98383181 -3.36622911
X -10.36013022 18.42034767 -29.31365455
X -0.93417236 33.96561517 -43.57315742
X -17.69721518 6.73240799 -28.51899486
X -31.08039065 20.99189790 -41.98384268
X -12.80582520 57.03796124 -50.30558844
X -25.61165041 28.51899229 0.98223421
X 9.42595786 46.63581675 -10.89330639
X -38.41747561 28.51897390 -40.20694463
X -29.56886802 29.80477245 5.93775295
X 0.00000000 52.87711100 -17.62572991
X -25.61165041 66.34193785 -50.30559260
X -3.95721762 43.26960266 -19.21503456
X -43.88621586 29.31363695 -20.99192975
X -14.31734783 26.43855758 -4.16087664
X -23.16595542 7.52706512 -22.58122896
X -37.48330326 18.91147486 -20.99192510
X -30.50304038 46.14468876 -20.99193726
X -38.41747561 21.78655166 -43.57315198
X -25.61165041 74.66368363 -14.25952927
X -43.30886559 31.09054252 -11.68795392
X -27.12317304 57.52908922 -40.20695758
X -28.05734540 42.77847053 -38.61764205
X -38.41747561 -0.00000672 -15.05415039
X -7.91443523 10.89327584 -21.78657599
X -12.80582520 24.35811614 -24.35813789
X -21.65443279 18.91147229 -26.74209887
X -41.44052087 39.41227742 -0.00001760
X -27.12317304 34.76027566 -30.10831632
X -38.41747561 28.51899149 -0.79466721
X -2.44569499 23.56346733 -11.68795056
X -34.46025800 25.64390797 6.73240928
X -42.37469323 16.33991039 -40.20693918
X -11.29430258 50.79666699 -43.57316494
X -50.28912846 29.80476493 -10.89329887
X -29.56886802 14.75060781 -25.94744255
X -16.18569255 48.22513357 6.73239918
X -13.73999756 29.80476829 -3.36622368
X -31.08039065 37.02829754 -36.84073806
X -25.61165041 44.55536859 -46.14471804
X -21.65443279 36.53719052 -0.00001631
X -2.44569499 30.29588955 -8.32174320
X -51.22330082 52.87711100 -17.62572991
X -11.29430258 33.17096557 -32.67987150
X -24.10012778 33.17098316 6.73240591
X -43.30886559 10.89327584 -21.78657599
X -21.65443279 40.69803997 -34.45677628
X -40.86317060 49.51090700 -3.36623248
X 0.00000000 17.62569471 -25.94744383
X -35.03760827 26.43854670 -28.51900366
X -52.73482345 23.86698559 -40.20694254
X -35.03760827 39.90338779 -29.31366415
X -24.10012778 15.54526078 -29.31365327
X -20.72026044 32.67985518 -3.36622496
X -8.84860759 16.33992463 -8.32173697
X -28.05734540 34.45675404 -9.11639953
X -17.69721518 59.60953322 -14.25952254
X -32.01456301 -6.24130177 -10.09862831
X -4.89138997 46.14469212 -13.46486206
X -30.50304038 46.14469965 3.36618975
X -11.29430258 34.76028238 -15.05416593
X -34.46025800 14.75061453 -10.89329215
X -38.41747561 57.03796460 -42.77851325
X -21.65443279 58.32376315 3.36618432
X -23.16595542 49.51091452 13.46481934
X -6.40291260 18.11681932 -23.37588816
X -11.29430258 23.86699310 -23.37589073
X -17.69721518 54.46641437 -30.10832512
X -44.82038822 35.74252411 -26.74210640
X -51.22330082 50.30554909 -31.09057021
X -51.22330082 10.89328255 -6.73242559
X -21.65443279 12.17906014 -7.52708064
X -15.25152019 11.68793631 -8.32173489
X -39.92899824 33.17097309 -15.84881968
X -33.52608564 41.98382171 -25.94745471
X -35.97178063 29.31363438 -26.74210352
X -15.82887046 21.78655839 -28.51900158
X -12.80582520 54.46642029 -16.83107614
X -42.37469323 29.80475741 -27.72435069
X -0.93417236 27.23320382 -22.58123776
X -39.92899824 11.38439966 -20.99192174
X -21.65443279 66.64548459 -15.05418016
X -19.20873781 29.01010939 -13.27726193
X -39.92899824 39.90339788 -6.73243855
X -15.25152019 22.58122560 -0.00001008
X -51.22330082 26.92967547 -16.64347137
X -50.28912846 20.50078831 -10.89329471
X -18.27456545 20.99189869 -40.20694126
X -16.76304282 32.37632347 -4.95553377
X -34.46025800 18.91147229 -26.74209887
X -27.12317304 4.65197743 -24.35812909
X -29.56886802 12.17905599 -16.83105726
X -38.41747561 61.19883916 -20.99194398
X 0.00000000 59.60953322 -14.25952254
X -16.76304282 36.53719132 1.77688511
X -20.72026044 32.67985182 -10.89330016
X -40.86317060 14.25947647 -43.57314861
X -27.12317304 41.49270125 -19.21503377
X 1.51152263 12.97370304 -33.47451695
X -11.29430258 41.49269037 -43.57316078
X -14.31734783 39.90340203 2.57153807
X -41.44052087 35.25140621 -14.25951167
X -25.61165041 67.93126475 -10.09866142
X -32.01456301 35.74251659 -43.57315821
X -32.94873537 38.61761020 -28.51900910
X 1.51152263 50.79667035 -36.04608974
X 0.00000000 13.46483774 -8.32173568
X -48.77760583 45.35003323 -23.37590032
X -29.56886802 44.85891869 -3.36623039
X -17.69721518 35.25141373 2.57154015
X -8.84860759 49.01977566 -20.99193855
X -27.12317304 50.79667035 -36.04608974
X -42.37469323 54.16288186 -33.47453535
X -2.44569499 62.97573722 -28.51901998
X -20.72026044 35.25139197 -46.14471389
X -19.20873781 63.27927308 -17.62573455
X -19.20873781 54.95754235 -20.00969425
X -15.25152019 41.18915787 -46.93937101
X -25.61165041 2.57153678 -42.77848893
X -44.82038822 26.43854333 -36.04607886
X -30.50304038 44.55537274 -36.84074142
X -35.39443036 35.25140621 -14.25951167
X -20.72026044 36.84070542 -36.04608351
X -32.01456301 4.65197071 -39.41227949
X -29.56886802 40.69803325 -49.51092668
X -25.61165041 16.03638797 -20.99192381
X -39.92899824 46.63581259 -20.19728301
X -19.20873781 38.92113935 -32.67987407
X -18.27456545 41.18917883 -0.00001840
X 7.91443523 28.51898734 -10.09864383
X -15.25152019 41.18917883 -0.00001840
X -12.80582520 43.57312766 -32.67987614
X -16.76304282 33.96563277 -4.16088001
X -30.50304038 41.98382428 -20.19728093
X -59.13773605 48.71624058 -30.10832255
X -21.65443279 33.96562190 -28.51900702
X -54.24634608 44.55538283 -14.25951582
X -33.52608564 29.50123579 -6.73243390
X -16.18569255 23.86699231 -25.15279215
X -21.65443279 29.80476236 -16.64347265
X -34.46025800 25.64389452 -23.37589152
X -37.48330326 47.43048060 10.09860991
X -27.12317304 65.85083163 -11.68796945
X -24.10012778 54.95753820 -29.31367087
X -35.97178063 45.35002907 -32.67987694
X -12.80582520 41.98381756 -35.25143133
X -12.80582520 24.35811278 -31.88521309
X -28.05734540 57.83263180 -14.25952175
X -46.33191084 28.51898142 -23.37589280
X -59.13773605 59.60952650 -29.31367295
X -34.46025800 32.37633019 10.09861663
X -15.25152019 56.24331835 -24.35815213
X -19.20873781 70.01169867 -6.73245199
X -35.97178063 20.99190206 -32.67986606
X -17.69721518 19.21501824 6.73241215
X 1.51152263 26.43854670 -28.51900366
X -19.20873781 30.59940782 -36.84073519
X -21.65443279 31.39406830 -23.37589409
X -9.78277995 26.92966381 -42.77849980
X -12.80582520 24.35812109 -13.27725986
X -47.84343347 19.70613119 -16.83106062
X -20.14291017 18.42035103 -21.78657935
X -35.97178063 20.99190878 -17.62571567
X -43.30886559 17.62569806 -18.42036863
X -39.92899824 18.11681853 -25.15278958
X -35.97178063 27.72434189 10.09861870
X -15.25152019 40.20693038 -3.36622832
X -48.77760583 40.20691614 -35.25143054
X -30.50304038 41.98383932 13.46482270
X -32.01456301 33.17097309 -15.84881968
X -7.33708496 10.09861870 -27.72434189
X -28.05734540 29.31363438 -26.74210352
X -24.67747805 44.85891869 -3.36623039
X -31.08039065 10.09861535 -35.25141709
X -35.97178063 40.20692029 -25.94745392
X -24.10012778 19.70613198 -15.05415920
X 1.51152263 12.97370639 -25.94744175
X -19.20873781 54.95754076 -23.56349709
X -19.20873781 57.52908843 -41.98385900
X -33.52608564 26.92966796 -33.47452318
X -59.13773605 46.14467869 -43.57316285
X -32.01456301 68.42238186 -24.35815758
X -29.56886802 25.64388284 -49.51091996
X -15.25152019 41.18916459 -31.88522061
X -35.97178063 40.20691614 -35.25143054
X -19.20873781 2.08043392 3.36620944
X -13.73999756 27.23321390 -0.00001216
X -25.61165041 20.19725997 -4.95552833
X -26.54582277 36.53718300 -16.83106814
X -35.03760827 37.33183341 -25.94745264
X -39.35164797 47.43047308 -6.73244191
X -16.18569255 54.95754907 -4.95554385
X -12.80582520 25.94743295 -6.73243232
X -8.84860759 21.48303004 -22.58123519
X 3.95721762 51.59132668 -31.88522526
X -29.56886802 23.07235022 2.57154558
X -24.67747805 40.69804412 -25.15279966
X -47.84343347 28.02786015 -18.42037328
X -32.94873537 49.51090028 -18.42038287
X -25.61165041 28.51897726 -32.67986942
X -43.30886559 48.71625403 -0.00002176
X 0.00000000 21.78656175 -20.99192638
X -24.67747805 39.10874491 -3.36622783
X -32.01456301 39.90340540 10.09861326
X -15.25152019 42.77847468 -29.31366543
X -6.40291260 68.42238522 -16.83108238
X -4.89138997 21.78656175 -20.99192638
X -46.33191084 52.87710091 -40.20695550
X -12.80582520 63.77039355 -24.35815550
X -36.90595299 33.17097229 -17.62572110
X -15.25152019 16.83103837 -30.10830831
X -29.56886802 44.85890781 -27.72435741
X -7.33708496 53.67176812 -11.68796400
X -11.29430258 33.17097981 -0.79466929
X -39.92899824 65.85082826 -19.21504464
X 3.02304526 28.51897726 -32.67986942
X -38.41747561 -4.16088129 -36.84071966
X -35.03760827 15.54525662 -38.61762988
X -18.27456545 38.61761020 -28.51900910
X -7.33708496 10.09860862 -50.30556749
X -26.54582277 33.96561853 -36.04608221
X -29.56886802 47.43047050 -12.48261569
X -20.14291017 36.04605997 -15.84882097
X -42.37469323 36.53718716 -7.52709152
X -3.95721762 44.85889772 -50.30558301
X -28.05734540 29.31364783 3.36619727
X -29.56886802 18.91146735 -37.82297691
X -2.44569499 45.35003579 -17.62572654
X -47.84343347 29.01010781 -16.83106477
X -27.12317304 39.90339036 -23.56349036
X -4.89138997 32.67984846 -18.42037536
X -3.37986735 30.59942126 -6.73243439
X -41.44052087 13.46482270 -41.98383932
X -39.92899824 12.97370976 -18.42036656
X -32.01456301 22.27769725 5.93775631
X -16.18569255 44.06426236 -7.52709488
X -6.40291260 44.06425148 -31.88522190
X -7.91443523 41.98381836 -33.47452991
X -27.12317304 30.59941454 -21.78658479
X -23.16595542 49.51089691 -25.94745807
X -33.52608564 55.44865866 -36.04609181
X -26.54582277 44.85890861 -25.94745599
X -28.05734540 45.35003323 -23.37590032
X -23.16595542 42.77849228 10.09861198
X -32.01456301 70.01168523 -36.84075279
X -28.05734540 71.29746618 -30.10833263
X -27.12317304 23.86699982 -8.32174033
X -29.56886802 27.23319630 -39.41228958
X -31.08039065 56.24332587 -7.52710032
X -43.30886559 32.67983758 -42.77850237
X -17.69721518 57.03798299 -1.58933441
X -19.20873781 15.54527087 -6.73242767
X -11.29430258 22.27768301 -25.94744591
X -20.72026044 28.51897390 -40.20694463
X -6.40291260 61.68995963 -27.72436493
X -42.37469323 47.43047723 2.57153471
X -50.28912846 40.69804412 -25.15279966
X -36.90595299 26.43855758 -4.16087664
X -30.50304038 25.94741951 -36.84073311
X -28.05734540 56.24331163 -39.41230254
X -35.97178063 42.77847132 -36.84074063
X -32.94873537 52.08245466 -21.78659438
X -20.14291017 29.31362686 -43.57315533
X -28.63469567 17.62569054 -35.25142045
X -21.65443279 45.84114954 -39.41229789
X -42.37469323 33.96562525 -20.99193182
X -18.27456545 25.15277326 -18.42037200
X -32.01456301 44.06425564 -22.58124527
X -21.65443279 33.96562941 -11.68795520
X -26.54582277 54.16288858 -18.42038495
X -46.33191084 52.87711852 -0.79467809
X -12.80582520 43.57313022 -26.92970237
X -19.20873781 26.43855501 -9.91105043
X -54.24634608 39.41226733 -22.58124320
X 7.91443523 59.60953322 -14.25952254
X -10.36013022 34.45675067 -16.64347472
X -7.33708496 34.45674573 -27.72435277
X -28.05734540 38.61762444 3.36619312
X -12.80582520 2.57155439 -3.36621152
X -34.46025800 47.43046715 -20.00969089
X -40.86317060 56.24331163 -39.41230254
X 3.95721762 18.91148573 3.36620191
X -2.44569499 62.97574394 -13.46486958
X -40.86317060 27.72432765 -21.78658351
X -17.69721518 39.41227405 -7.52709281
X -35.97178063 41.18917883 -0.00001840
X -19.20873781 37.33184765 5.93774958
X -17.69721518 50.30556412 2.57153343
X -33.52608564 36.84070542 -36.04608351
X -12.80582520 47.73399134 -35.25143389
X -15.25152019 36.04604830 -41.98384940
X 9.42595786 26.43853998 -43.57315406
X -34.46025800 51.59132748 -30.10832384
X -20.72026044 25.94743295 -6.73243232
X -36.90595299 19.70613119 -16.83106062
X -37.48330326 12.17904927 -31.88520766
X 0.00000000 48.71625067 -7.52709696
X -29.56886802 44.85890524 -33.47453119
X -21.65443279 40.69805916 8.50930397
X -20.14291017 25.15277326 -18.42037200
X -43.88621586 10.09861535 -35.25141709
X -35.97178063 30.29588540 -17.62571982
X -27.12317304 39.90339452 -14.25951375
X -37.48330326 31.39407087 -17.62572031
X -43.88621586 22.58121215 -30.10831088
X -28.05734540 20.99189117 -57.03799308
X -42.37469323 54.16288522 -25.94746015
X -20.14291017 34.45674573 -27.72435277
X -32.01456301 22.27768301 -25.94744591
X 0.00000000 48.71624730 -15.05417216
X -46.33191084 26.92968140 -3.36622239
X -16.76304282 38.12649646 -6.73243776
X -25.61165041 21.78656590 -11.68794976
X -52.73482345 34.76026815 -46.93936813
X -25.61165041 15.05414368 -15.05415712
X -29.56886802 58.32374218 -43.57316829
X -54.24634608 17.62568382 -50.30557085
X -44.82038822 37.33183261 -27.72435405
X -44.82038822 44.06425900 -15.05417008
X -8.84860759 27.23320382 -22.58123776
X -15.25152019 31.88520301 1.77688718
X -35.97178063 10.09861198 -42.77849228
X -37.48330326 54.16288186 -33.47453535
X -21.65443279 45.84115627 -24.35814749
X 1.51152263 33.17097644 -8.32174448
X -16.76304282 25.64389452 -23.37589152
X -48.77760583 38.61760348 -43.57315949
X -38.41747561 43.57312686 -34.45677756
X -16.76304282 44.85890781 -27.72435741
X -33.52608564 50.30555404 -20.00969217
X -12.80582520 31.09054925 3.36619648
X -52.73482345 54.95754155 -21.78659567
X -56.69204106 49.51090028 -18.42038287
X -30.50304038 21.78656511 -13.46485118
X -19.20873781 8.81284863 -10.09863503
X -54.24634608 52.87711179 -15.84882849
X -2.44569499 52.08246138 -6.73244399
X -29.56886802 21.48301916 -46.93936221
X -55.18051843 5.44663455 -18.42036319
X -13.73999756 32.37631260 -29.31366078
X -52.73482345 29.01011197 -7.52708816
X -38.41747561 59.60951898 -46.14472476
X -38.41747561 24.35812109 -13.27725986
X -42.37469323 23.07232510 -53.67178364
X -28.99151776 46.63581675 -10.89330639
X -21.65443279 51.59134092 -0.00002304
X -11.29430258 35.74253004 -13.46485742
X 5.46874024 45.35004331 -0.79467473
X -39.92899824 33.17097644 -8.32174448
X -26.54582277 51.59133083 -22.58124864
X -0.93417236 23.07233519 -31.09055804
X -3.37986735 33.17096220 -40.20694670
X -48.77760583 23.56346733 -11.68795056
X -28.05734540 67.13660506 -21.78660111
X -43.88621586 47.92158009 -43.57316365
X 3.02304526 21.78655503 -36.04607678
X -27.12317304 37.33184765 5.93774958
X -34.46025800 50.00202746 -10.09865342
X -24.67747805 40.69804828 -15.84882305
X -12.80582520 35.25140285 -21.78658687
X -33.52608564 9.30396238 -31.88520637
X -33.52608564 41.00158335 -6.73243904
X -39.35164797 54.16288186 -33.47453535
X -15.25152019 33.47450479 -14.25951088
X -28.63469567 46.14469965 3.36618975
X -20.14291017 23.56345981 -28.51900238
X -2.44569499 60.40417947 -32.67988366
X -2.44569499 25.15277326 -18.42037200
X -8.84860759 38.12648301 -36.84073855
X -32.94873537 38.61761436 -19.21503248
X -27.12317304 29.01010860 -15.05416335
X -16.76304282 29.80476572 -9.11639745
X -11.29430258 35.74252668 -20.99193261
X -42.37469323 47.43046299 -29.31366750
X -35.97178063 45.35003916 -10.09865135
X -21.65443279 28.21545227 -19.21502784
X -21.65443279 24.66164607 -26.74210145
X -33.52608564 24.35812365 -7.52708608
X -11.29430258 31.58166635 -10.89329967
X -23.16595542 56.24331163 -39.41230254
X -20.72026044 28.51899486 6.73240799
X -7.91443523 35.25140285 -21.78658687
X -25.61165041 -1.58932017 -25.15278078
X -21.65443279 58.32375643 -11.68796608
X -4.89138997 32.67983422 -50.30557757
X -30.50304038 17.62568719 -42.77849565
X -13.73999756 58.32375306 -19.21504128
X -25.61165041 9.30396654 -22.58122975
X -47.84343347 26.43855006 -20.99192846
X -28.99151776 26.43854670 -28.51900366
X -32.01456301 37.33185101 13.46482478
X -36.90595299 57.52910267 -10.09865679
X -36.90595299 46.63581003 -25.94745679
X -24.10012778 65.85083499 -4.16089425
X -19.20873781 44.06426236 -7.52709488
X -42.37469323 36.53718459 -13.27726529
X -14.31734783 23.86698559 -40.20694254
X -32.01456301 24.84924155 -20.00968081
X -2.44569499 3.36619391 -36.84072302
X -8.84860759 69.21703899 -18.42039167
X -19.20873781 19.70614287 9.30396782
X -54.24634608 44.55537611 -29.31366622
X -9.78277995 44.55538619 -6.73244062
X -26.54582277 16.33992384 -10.09863839
X -19.20873781 24.84924492 -12.48260560
X -33.52608564 52.87710427 -32.67988030
X -23.16595542 14.25948991 -13.46484783
X -41.44052087 44.55538283 -14.25951582
X -41.44052087 26.92966381 -42.77849980
X -4.89138997 25.94743295 -6.73243232
X -19.20873781 20.68838380 -4.16087408
X -25.61165041 17.62571230 13.46483359
X -41.44052087 28.51898398 -17.62571903
X -42.37469323 28.21546235 3.36619776
X -15.25152019 25.15276239 -42.77849901
X -32.01456301 45.65356830 -14.25951631
X -29.56886802 39.10873482 -25.94745343
X -3.37986735 19.70612782 -24.35813582
X -24.10012778 29.01009772 -39.41229037
X -32.01456301 44.06424060 -56.24334891
X 0.00000000 59.60953659 -6.73244735
X -23.16595542 38.61762108 -4.16088208
X -44.82038822 44.06425564 -22.58124527
X -35.97178063 30.29587867 -32.67987022
X -46.33191084 17.62568382 -50.30557085
X -16.76304282 25.64390124 -8.32174113
X -7.33708496 38.61761436 -19.21503248
X -37.48330326 29.80476829 -3.36622368
X -16.76304282 39.10874155 -10.89330302
X -3.37986735 33.17097229 -17.62572110
X -43.88621586 38.61760684 -36.04608430
X -3.95721762 27.23319294 -46.93936477
X -35.97178063 53.67176476 -19.21503920
X -21.65443279 29.80475326 -37.02832731
X -9.78277995 26.92967388 -20.19727421
X -13.73999756 39.10873819 -18.42037823
X -17.69721518 57.03798636 5.93774078
X -16.76304282 40.69803740 -40.20695005
X -40.86317060 52.08246138 -6.73244399
X -16.76304282 60.89531002 -16.83107901
X -17.69721518 43.57313437 -17.62572575
X -15.25152019 11.68793968 -0.79465970
X -34.46025800 1.28576335 -32.67985726
X -20.14291017 49.51089691 -25.94745807
X -20.14291017 16.83103757 -31.88520973
X -14.31734783 19.70612526 -30.10830959
X 5.46874024 20.99191214 -10.09864046
X -32.01456301 26.43856846 20.19725037
X -11.29430258 52.38598717 -18.42038416
X -33.52608564 24.35811357 -30.10831167
X -15.25152019 27.72433517 -4.95553169
X -63.09495366 33.96562190 -28.51900702
X -15.25152019 30.29587531 -40.20694541
X -27.12317304 15.54526335 -23.56347949
X -19.20873781 28.02786351 -10.89329808
X -42.37469323 33.96562862 -13.46485663
X -25.61165041 9.30397661 -0.00000416
X -17.69721518 39.41226733 -22.58124320
X -51.22330082 20.19725325 -20.00967873
X -21.65443279 45.84115290 -31.88522269
X -4.89138997 37.82296139 -15.84882176
X -52.73482345 33.17097309 -15.84881968
X -38.41747561 2.57155103 -10.89328671
X -4.89138997 46.14469292 -11.68796065
X -42.37469323 51.59133420 -15.05417344
X -25.61165041 41.98381836 -33.47452991
X -0.93417236 29.80475069 -42.77850109
X -39.92899824 26.43854333 -36.04607886
X -24.10012778 41.49270461 -11.68795856
X -7.33708496 38.61761772 -11.68795728
X -56.69204106 25.15275902 -50.30557420
X -30.50304038 39.41226653 -24.35814461
X -55.18051843 29.80476157 -18.42037407
X -52.73482345 30.59941790 -14.25950959
X -23.16595542 27.72432093 -36.84073390
X -22.58860515 28.51898398 -17.62571903
X -14.31734783 54.95754828 -6.73244527
X -9.78277995 43.57313517 -15.84882433
X -25.61165041 41.98382171 -25.94745471
X -27.12317304 11.38439966 -20.99192174
X -21.65443279 35.55493535 -18.42037664
X -35.97178063 30.29589291 -0.79466800
X -28.05734540 42.77846380 -53.67179244
X -19.20873781 19.70613535 -7.52708400
X -22.58860515 24.35810605 -46.93936349
X -52.73482345 34.76027150 -39.41229294
X -39.35164797 40.69805084 -10.09864927
X -17.69721518 61.19883659 -26.74211776
X -18.27456545 29.31364031 -13.46485454
X -28.05734540 27.72432349 -31.09056013
X -48.77760583 60.40417947 -32.67988366
X -12.80582520 46.14467117 -60.40421468
X -15.25152019 71.29747963 -0.00003184
X 11.87165285 36.53718380 -15.05416672
X -17.69721518 17.62570143 -10.89329344
X -16.18569255 26.43854333 -36.04607886
X -24.10012778 33.17096141 -41.98384812
X -32.94873537 27.72433101 -14.25950830
X 15.82887046 41.98381836 -33.47452991
X -25.61165041 -8.32173904 -20.99191293
X -16.76304282 39.10873146 -33.47452862
X -47.84343347 33.17097229 -17.62572110
X -42.37469323 12.17905263 -24.35813245
X -4.89138997 44.55538619 -6.73244062
X -23.16595542 3.36619391 -36.84072302
X -47.84343347 37.33183677 -18.42037743
X -11.29430258 35.74252747 -19.21503119
X -28.05734540 60.40419371 -0.79468145
X -9.78277995 35.25140621 -14.25951167
X -40.86317060 53.67176061 -28.51901582
X -29.56886802 69.21703562 -25.94746687
X -24.10012778 24.84923403 -36.84073262
X -8.84860759 36.53719804 16.83103550
X -3.95721762 23.07233934 -21.78658142
X -9.78277995 33.66208267 -46.93936764
X -23.16595542 18.42035439 -14.25950415
X -37.48330326 38.12648301 -36.84073855
X -39.92899824 23.86699310 -23.37589073
X 1.51152263 35.74253083 -11.68795600
X -19.20873781 22.27767214 -50.30557292
X -12.80582520 31.09054252 -11.68795392
X -33.52608564 43.57314526 6.73240127
X -19.20873781 44.06424812 -39.41229709
X -15.25152019 57.83262508 -29.31367215
X -44.82038822 50.79667371 -28.51901453
X -19.20873781 23.86699982 -8.32174033
X 9.42595786 39.90338779 -29.31366415
X -38.41747561 10.89327584 -21.78657599
X -28.05734540 23.56345308 -43.57315277
X -29.56886802 1.28577008 -17.62570686
X 5.46874024 52.08245130 -29.31366958
X -51.22330082 50.30554237 -46.14472060
X -28.05734540 51.10020621 -25.15280431
X -0.93417236 33.96562862 -13.46485663
X -23.16595542 27.72431341 -53.67178572
X -12.80582520 6.73240463 -36.04607006
X -7.33708496 30.29588203 -25.15279501
X -42.37469323 55.75219452 -25.15280639
X -25.61165041 41.98383181 -3.36622911
X -42.37469323 51.59133004 -24.35815006
X -60.64925868 26.43855006 -20.99192846
X -34.46025800 12.17905599 -16.83105726
X 0.00000000 10.89327919 -14.25950079
X -20.14291017 45.35004331 -0.79467473
X -11.29430258 37.33182925 -35.25142925
X -20.14291017 40.20692366 -18.42037872
X -15.25152019 45.35003995 -8.32174993
X -15.82887046 28.51897726 -32.67986942
X -50.28912846 47.43047388 -4.95554049
X -33.52608564 6.73240799 -28.51899486
X 3.95721762 5.44663455 -18.42036319
X -36.90595299 37.33183598 -20.19727885
X -43.88621586 37.02830427 -21.78658766
X -10.36013022 56.24332922 -0.00002512
X 3.95721762 29.80476493 -10.89329887
X -9.78277995 43.57314526 6.73240127
X -39.92899824 37.33182925 -35.25142925
X -36.90595299 44.06425820 -16.83107149
X 11.87165285 23.07233261 -36.84073183
X -8.84860759 14.75060444 -33.47451775
X -3.95721762 65.05616777 -32.67988574
X -25.61165041 46.14470716 20.19724157
X -31.08039065 25.15277663 -10.89329679
X -20.72026044 32.67984766 -20.19727677
X -35.39443036 21.78655166 -43.57315198
X -24.67747805 36.53718716 -7.52709152
X -16.76304282 44.85891117 -20.19728221
X 1.51152263 37.33183598 -20.19727885
X -20.72026044 46.14468956 -19.21503584
X -41.44052087 24.35810941 -39.41228829
X -18.27456545 49.51090028 -18.42038287
X -7.33708496 40.20692366 -18.42037872
X -38.41747561 48.71624395 -22.58124736
X -39.92899824 39.90340203 2.57153807
X -12.80582520 32.67983422 -50.30557757
X -13.73999756 12.17904590 -39.41228285
X -38.41747561 52.87710012 -41.98385692
X -13.73999756 55.75219867 -15.84882977
X -22.23178306 46.63581003 -25.94745679
X -37.48330326 33.96562605 -19.21503040
X -47.84343347 30.59941454 -21.78658479
X -25.61165041 13.46483101 -23.37588608
X -54.24634608 28.51897726 -32.67986942
X -42.37469323 69.21703226 -33.47454207
X -34.46025800 40.69804333 -26.92970108
X -12.80582520 25.94741951 -36.84073311
X -30.50304038 21.78657263 3.36620063
X -12.80582520 33.66210027 -7.52709023
X -19.20873781 35.74252668 -20.99193261
X -7.91443523 17.62570143 -10.89329344
X -52.73482345 15.54526750 -14.25950287
X -38.41747561 31.09053837 -20.99193054
X -27.12317304 30.59942126 -6.73243439
X -31.08039065 25.15277246 -20.19727342
X -25.61165041 21.78658015 20.19725245
X -2.44569499 60.40417610 -40.20695886
X -29.56886802 54.16288858 -18.42038495
X -15.25152019 7.52707520 -0.00000336
X -6.40291260 -2.08043392 -3.36620944
X -22.58860515 31.09053837 -20.99193054
X -42.37469323 62.48462347 -6.73244863
X -8.84860759 28.21545563 -11.68795264
X -16.18569255 39.90339452 -14.25951375
X -0.93417236 20.50077823 -33.47452032
X -15.82887046 28.51897390 -40.20694463
X -6.40291260 29.01011612 1.77688846
X -23.16595542 26.13502171 -15.05416207
X -11.29430258 11.38438958 -43.57314733
X -25.61165041 19.21500480 -23.37588865
X -32.01456301 61.68996379 -18.42038831
X -16.76304282 33.96562862 -13.46485663
X -18.27456545 31.88518461 -39.41229165
X -50.28912846 33.96563614 3.36619520
X -28.05734540 16.83105181 -0.00000751
X -21.65443279 47.43046556 -23.56349373
X -8.84860759 20.50078496 -18.42036991
X -19.20873781 39.90339868 -4.95553713
X 3.02304526 52.87710842 -23.37590368
X -24.10012778 54.95754571 -12.48261905
X -34.46025800 43.26960603 -11.68795936
X 1.51152263 37.33183261 -27.72435405
X -44.82038822 33.17097981 -0.79466929
X -15.25152019 38.61763196 20.19724494
X -12.80582520 57.03798220 -3.36623583
X -35.97178063 31.88519133 -24.35814126
X -4.89138997 46.14469628 -4.16088544
X -38.41747561 41.98381084 -50.30558173
X -33.52608564 24.35812030 -15.05416128
X -7.33708496 56.24332587 -7.52710032
X -17.69721518 50.30555660 -14.25951839
X -6.40291260 8.81284527 -17.62571023
X -43.88621586 47.92158346 -36.04608845
X -8.84860759 69.21703226 -33.47454207
X -27.12317304 18.11682189 -17.62571438
X -39.92899824 31.58165963 -25.94745006
X -60.64925868 33.17097565 -10.09864590
X -34.46025800 23.07234685 -4.95552961
X -56.69204106 38.61761772 -11.68795728
X -29.56886802 36.53719804 16.83103550
X -63.09495366 47.43046299 -29.31366750
X -28.05734540 49.51089355 -33.47453327
X -48.77760583 41.18917883 -0.00001840
X -28.05734540 20.99191214 -10.09864046
X -25.61165041 36.84071550 -13.46485790
X -37.48330326 27.23320045 -30.10831296
X -34.46025800 54.16288858 -18.42038495
X -21.65443279 50.00201322 -41.98385563
X -12.80582520 32.67984431 -27.72435197
X -29.56886802 25.64389788 -15.84881632
X -7.33708496 31.88519470 -16.83106606
X -19.20873781 50.79668043 -13.46486414
X -14.31734783 23.86699231 -25.15279215
X -16.18569255 46.63582011 -3.36623119
X -28.05734540 46.93935261 -0.00002096
X -12.80582520 46.14468876 -20.99193726
X -28.05734540 34.45674988 -18.42037615
X -22.23178306 23.86698559 -40.20694254
X -29.56886802 39.10873067 -35.25143005
X 15.82887046 41.98382844 -10.89330432
X -38.41747561 59.60952314 -36.84074815
X -19.20873781 7.22352925 -33.47451438
X -22.23178306 50.79667787 -19.21503792
X -20.72026044 21.78656255 -19.21502496
X -30.50304038 28.51898734 -10.09864383
X -34.46025800 23.07234013 -20.00968000
X -4.89138997 37.82295052 -40.20694878
X -50.28912846 33.96563277 -4.16088001
X -16.76304282 28.21546235 3.36619776
X -43.30886559 59.60953659 -6.73244735
X -34.46025800 40.69804828 -15.84882305
X -38.41747561 20.19725325 -20.00967873
X 3.95721762 38.12648223 -38.61763997
X -34.46025800 42.28735679 -16.83107070
X -15.25152019 53.67176139 -26.74211441
X -16.18569255 23.86698559 -40.20694254
X -15.25152019 22.58122223 -7.52708529
X -23.16595542 38.61762444 3.36619312
X -34.46025800 51.59132668 -31.88522526
X -32.01456301 44.06426315 -5.75019346
X -4.89138997 10.89327584 -21.78657599
X -22.58860515 46.14469292 -11.68796065
X -10.36013022 45.35003323 -23.37590032
X -22.23178306 39.90338443 -36.84073935
X -3.37986735 23.86699231 -25.15279215
X -24.10012778 11.38439630 -28.51899694
X -28.63469567 28.51898398 -17.62571903
X -42.37469323 31.39406415 -32.67987071
X 3.95721762 18.91147229 -26.74209887
X -34.46025800 43.26959179 -43.57316157
X -13.73999756 8.01818815 -23.56347612
X -18.27456545 34.45674988 -18.42037615
X -35.97178063 38.61761020 -28.51900910
X -29.56886802 58.32375306 -19.21504128
X -15.25152019 25.15278414 5.93775502
X -39.92899824 31.58165627 -33.47452527
X -25.61165041 28.51898893 -6.54484099
X -16.76304282 42.28734670 -39.41229630
X -25.61165041 15.05414031 -22.58123232
X -13.73999756 18.91146813 -36.04607550
X -25.61165041 10.89328335 -4.95552417
X -48.77760583 25.15277246 -20.19727342
X -32.01456301 68.42237514 -39.41230797
X -17.69721518 24.35812365 -7.52708608
X -51.22330082 31.09054925 3.36619648
X -31.08039065 52.08246138 -6.73244399
X -32.94873537 45.35003244 -25.15280174
X -21.65443279 32.37632011 -12.48260897
X -33.52608564 50.30556412 2.57153343
X -34.46025800 58.32374555 -36.04609310
X -26.54582277 12.17905599 -16.83105726
X -12.80582520 25.94742959 -14.25950751
X -10.36013022 52.08245803 -14.25951919
X -24.10012778 4.65197407 -31.88520429
X -46.33191084 28.51897646 -34.45677084
X -37.48330326 62.48462427 -4.95554721
X -44.82038822 57.52910267 -10.09865679
X -17.69721518 28.51898398 -17.62571903
X -26.54582277 23.07233261 -36.84073183
X -12.80582520 55.44866538 -20.99194141
X -44.82038822 37.33183341 -25.94745264
X -26.54582277 25.64390045 -10.09864255
X -37.48330326 33.96562525 -20.99193182
X -17.69721518 44.55537867 -23.56349244
X -13.73999756 39.10872731 -42.77850524
X -34.46025800 62.48461339 -29.31367423
X -27.12317304 46.63582011 -3.36623119
X -10.36013022 3.36620400 -14.25949743
X -3.95721762 47.43045963 -36.84074270
X -8.84860759 58.32375227 -20.99194270
X -8.84860759 18.91147486 -20.99192510
X -18.27456545 25.15277246 -20.19727342
X -11.29430258 57.52909594 -25.15280718
X -31.08039065 22.58122560 -0.00001008
X -42.37469323 33.96563614 3.36619520
X -0.93417236 29.80476493 -10.89329887
X -42.37469323 16.33992126 -15.84881216
X -33.52608564 28.51899486 6.73240799
X -44.82038822 44.06424812 -39.41229709
X -21.65443279 29.80476572 -9.11639745
X -20.72026044 43.57312429 -40.20695135
X -12.80582520 66.34194122 -42.77851741
X -17.69721518 20.19725917 -6.73242975
X -30.50304038 48.71624651 -16.83107357
X -24.10012778 39.90337692 -53.67179116
X -23.16595542 36.04605918 -17.62572238
X -29.56886802 42.28735758 -15.05416928
X -4.89138997 63.77039771 -15.05417888
X -17.69721518 32.67985182 -10.89330016
X -35.97178063 18.42034767 -29.31365455
X -15.25152019 20.99190541 -25.15279086
X -25.61165041 74.66368698 -6.73245407
X -4.89138997 39.41225645 -46.93937022
X -42.37469323 18.91147150 -28.51900029
X -46.33191084 28.51899486 6.73240799
X -37.48330326 31.39407423 -10.09864511
X -36.90595299 37.33184014 -10.89330224
X -24.10012778 26.43854749 -26.74210224
X -16.76304282 23.07234270 -14.25950623
X -39.92899824 8.81283855 -32.67986062
X -39.92899824 26.43854254 -37.82298028
X -4.89138997 52.87711852 -0.79467809
X 15.82887046 48.71625403 -0.00002176
X -44.82038822 18.11682605 -8.32173776
X -4.89138997 28.51897726 -32.67986942
X -27.12317304 65.85083499 -4.16089425
X -40.86317060 27.72434189 10.09861870
X -11.29430258 30.59941454 -21.78658479
X -38.41747561 32.67983758 -42.77850237
X -35.97178063 42.77847389 -31.09056685
X -24.10012778 26.43853998 -43.57315406
X -17.69721518 36.84071294 -19.21503168
X -10.36013022 25.15275902 -50.30557420
X -15.25152019 -0.79466385 -20.99191630
X -20.14291017 18.42034767 -29.31365455
X -39.92899824 35.74252668 -20.99193261
X -28.05734540 42.77848893 2.57153678
X -6.40291260 41.49269037 -43.57316078
X -50.28912846 40.69804492 -23.37589824
X -17.69721518 57.03797547 -18.42038624
X -43.88621586 34.45673900 -42.77850317
X -24.67747805 36.53717965 -24.35814334
X -11.29430258 34.76027902 -22.58124112
X -38.41747561 46.14468125 -37.82298908
X -38.41747561 33.66209691 -15.05416544
X -46.33191084 13.46483022 -25.15278750
X -19.20873781 42.47493882 -40.20695086
X -46.33191084 6.73241135 -20.99191966
X -46.33191084 32.67984766 -20.19727677
X -60.64925868 23.86698559 -40.20694254
X -26.54582277 47.43046635 -21.78659231
X -39.92899824 46.63581339 -18.42038159
X 7.91443523 28.51897390 -40.20694463
X -12.80582520 21.78655503 -36.04607678
X -20.14291017 27.72433101 -14.25950830
X -31.08039065 37.02830762 -14.25951246
X 5.46874024 34.45675660 -3.36622575
X -29.56886802 38.12649310 -14.25951295
X -15.25152019 34.45674652 -25.94745135
X -23.16595542 45.35002571 -40.20695214
X -19.20873781 37.33184349 -3.36622704
X -21.65443279 53.18063678 -29.31367007
X -30.50304038 6.73240463 -36.04607006
X -7.33708496 49.51090700 -3.36623248
X -0.93417236 38.12648974 -21.78658815
X -24.67747805 40.69804492 -23.37589824
X -12.80582520 54.46641357 -31.88522653
X -37.48330326 47.43046299 -29.31366750
X -32.01456301 46.63580666 -33.47453199
X -19.20873781 52.38597293 -50.30558637
X -67.05217128 41.98382171 -25.94745471
X -21.65443279 24.66165952 3.36619935
X -43.30886559 21.78656175 -20.99192638
X -24.10012778 28.02786351 -10.89329808
X -25.61165041 35.25139533 -38.61763868
X -46.33191084 31.09053500 -28.51900573
X -26.54582277 29.80476829 -3.36622368
X -35.97178063 49.51090028 -18.42038287
X -42.37469323 40.69802988 -57.03800188
X -21.65443279 14.75060702 -27.72434397
X -19.20873781 48.22513357 6.73239918
X -55.18051843 38.12648223 -38.61763997
X -4.89138997 43.57312766 -32.67987614
X -19.20873781 61.68995290 -42.77851533
X -32.01456301 12.97372400 13.46483566
X 3.95721762 16.33992384 -10.09863839
X -33.52608564 31.09052076 -60.40420795
X -47.26608320 18.91147901 -11.68794848
X -25.61165041 41.00158335 -6.73243904
X -17.69721518 67.93126218 -15.84883521
X -44.82038822 29.01010187 -30.10831375
X 1.51152263 23.86699903 -10.09864175
X -19.20873781 44.06425900 -15.05417008
X -51.22330082 17.62570143 -10.89329344
X 7.91443523 24.35811357 -30.10831167
X -25.61165041 63.77040107 -7.52710368
X -29.56886802 51.59132748 -30.10832384
X -39.35164797 47.43046635 -21.78659231
X -25.61165041 39.41228157 9.30395902
X -19.20873781 34.76026815 -46.93936813
X -7.33708496 56.24332250 -15.05417551
X -13.73999756 32.37630171 -53.67178780
X -23.16595542 40.20690942 -50.30558093
X -20.72026044 20.19725581 -14.25950495
X -25.61165041 46.14469212 -13.46486206
X -59.13773605 46.14469212 -13.46486206
X -29.56886802 14.75060702 -27.72434397
X -48.77760583 30.29588955 -8.32174320
X -52.73482345 39.90339531 -12.48261232
X -29.56886802 39.10874155 -10.89330302
X 0.00000000 31.09054588 -4.16087873
X -44.82038822 4.65198831 -0.00000208
X -35.03760827 42.47493882 -40.20695086
X -14.31734783 39.90338443 -36.84073935
X -46.33191084 13.46483694 -10.09863710
X -28.05734540 46.93933501 -39.41229838
X -11.29430258 33.17096141 -41.98384812
X -25.61165041 51.28779081 -42.77851068
X -0.93417236 23.07233854 -23.56348285
X -16.76304282 33.96561517 -43.57315742
X -17.69721518 30.10828735 -30.10831424
X -23.16595542 14.25949071 -11.68794641
X -21.65443279 69.21703226 -33.47454207
X -14.31734783 19.70613535 -7.52708400
X -37.48330326 51.59133420 -15.05417344
X -46.33191084 24.35811614 -24.35813789
X -38.41747561 52.87711852 -0.79467809
X -54.24634608 28.51897390 -40.20694463
X -24.67747805 16.33991711 -25.15278878
X -19.20873781 0.49110702 -36.84072174
X -37.48330326 18.91146398 -45.35005212
X 1.51152263 33.17098316 6.73240591
X -63.09495366 36.53718380 -15.05416672
X -24.10012778 45.65356493 -21.78659152
X -25.61165041 22.76880763 -23.37589024
X -22.23178306 46.63580666 -33.47453199
X -19.20873781 42.47494554 -25.15280046
X -47.84343347 22.27768221 -27.72434733
X -14.31734783 44.06424476 -46.93937229
X -13.73999756 47.43047723 2.57153471
X -37.48330326 43.26960603 -11.68795936
X -11.29430258 19.70612526 -30.10830959
X -59.13773605 31.09053916 -19.21502912
X -35.97178063 27.72433180 -12.48260688
X -13.73999756 24.66165952 3.36619935
X -46.33191084 10.89327919 -14.25950079
X -28.05734540 38.61762860 12.67016973
X -38.41747561 46.14469628 -4.16088544
X -47.26608320 40.69803740 -40.20695005
X 3.95721762 65.05616442 -40.20696094
X -38.41747561 39.41225645 -46.93937022
X -38.41747561 9.30396989 -15.05415455
X 1.51152263 26.43855006 -20.99192846
X -43.88621586 31.88520222 -0.00001424
X -19.20873781 39.90339195 -20.00968752
X -41.44052087 41.98381836 -33.47452991
X -10.36013022 46.93934174 -24.35814798
X -41.44052087 46.14468620 -26.74211104
X -51.22330082 39.41226653 -24.35814461
X -35.39443036 41.98381836 -33.47452991
X -32.01456301 30.59941869 -12.48260817
X -50.28912846 33.96562862 -13.46485663
X 1.51152263 61.68996714 -10.89331311
X -26.54582277 51.59133756 -7.52709823
X -23.16595542 49.51089355 -33.47453327
X -13.73999756 27.23320045 -30.10831296
X -38.41747561 46.14468541 -28.51901246
X -32.01456301 41.49269037 -43.57316078
X -33.52608564 24.35810190 -56.24334011
X -8.84860759 49.01976894 -36.04608894
X -44.82038822 15.54527838 10.09862415
X -12.80582520 47.73399806 -20.19728350
X -48.77760583 45.35002571 -40.20695214
X -13.73999756 31.39407502 -8.32174369
X -37.48330326 35.55493199 -25.94745184
X -17.69721518 16.03638797 -20.99192381
X -42.37469323 58.32374218 -43.57316829
X -13.73999756 29.80475485 -33.47452447
X -30.50304038 31.09054252 -11.68795392
X -17.69721518 40.39450490 -43.57316029
X -12.80582520 39.41227742 -0.00001760
X -18.27456545 34.45675660 -3.36622575
X -25.61165041 6.73242223 3.36620735
X -4.89138997 6.73241135 -20.99191966
X -16.18569255 54.95754235 -20.00969425
X -23.16595542 31.88518797 -31.88521646
X -34.46025800 49.01977901 -13.46486335
X -24.10012778 15.54526335 -23.56347949
X -10.36013022 53.67176733 -13.46486542
X -35.03760827 19.70612111 -39.41228621
X -15.25152019 10.09861535 -35.25141709
X -23.16595542 27.72432765 -21.78658351
X -24.67747805 58.32375979 -4.16089088
X -33.52608564 35.25139949 -29.31366207
X -32.01456301 22.27767549 -42.77849772
X -15.25152019 53.67176733 -13.46486542
X -32.94873537 45.35002571 -40.20695214
X -9.78277995 48.71625067 -7.52709696
X -7.91443523 31.09054252 -11.68795392
X -24.10012778 52.38599053 -10.89330896
X -32.01456301 65.85082491 -26.74211984
X -15.25152019 33.47450815 -6.73243567
X -6.40291260 12.97370304 -33.47451695
X -25.61165041 13.46483774 -8.32173568
X -11.29430258 50.79668123 -11.68796272
X -21.65443279 69.21704234 -10.89331647
X -15.82887046 21.78656175 -20.99192638
X -27.12317304 37.33183598 -20.19727885
X -40.86317060 10.09861614 -33.47451567
X -16.76304282 12.17906351 -0.00000544
X -16.76304282 18.91148573 3.36620191
X -18.27456545 45.35004667 6.73240047
X -21.65443279 36.53717549 -33.66211995
X -32.01456301 34.76026815 -46.93936813
X -2.44569499 56.24332587 -7.52710032
X -48.77760583 31.88520222 -0.00001424
X -32.94873537 20.99189869 -40.20694126
X -35.03760827 23.86699903 -10.09864175
X -37.48330326 39.10874155 -10.89330302
X -21.65443279 25.64388700 -40.20694334
X 1.51152263 39.90339788 -6.73243855
X -10.36013022 31.88518797 -31.88521646
X -52.73482345 35.74252411 -26.74210640
X -42.37469323 36.53717965 -24.35814334
X -24.10012778 19.70613119 -16.83106062
X -29.56886802 38.12648974 -21.78658815
X -25.61165041 39.41228493 16.83103422
X -3.95721762 58.32374218 -43.57316829
X -60.64925868 46.63581675 -10.89330639
X -36.90595299 39.90339531 -12.48261232
X -8.84860759 44.85891869 -3.36623039
X -33.52608564 17.62570143 -10.89329344
X -19.20873781 19.70612862 -22.58123440
X -47.84343347 22.27768557 -20.19727212
X -47.26608320 25.64389788 -15.84881632
X -38.41747561 35.25141036 -4.95553505
X -19.20873781 65.85083083 -13.46487086
X -17.69721518 31.09053165 -36.04608093
X -29.56886802 23.07233598 -29.31365662
X -31.08039065 42.77847805 -21.78659022
X -30.50304038 48.71624315 -24.35814878
X -43.88621586 29.31364110 -11.68795313
X -4.89138997 25.94742287 -29.31365792
X -55.18051843 47.43045963 -36.84074270
X -23.16595542 44.36777726 -43.57316206
X -43.88621586 42.77849228 10.09861198
X -37.48330326 54.16288858 -18.42038495
X -12.80582520 13.46483359 -17.62571230
X -12.80582520 48.71625067 -7.52709696
X -23.16595542 37.02829754 -36.84073806
X -28.05734540 60.40418699 -15.84883185
X -31.08039065 36.04605661 -23.37589617
X -15.25152019 31.88518877 -30.10831504
X -29.56886802 8.01819230 -14.25949950
X -67.05217128 48.71624395 -22.58124736
X 11.87165285 54.16289195 -10.89330975
X -30.50304038 28.51896974 -49.51092124
X -2.44569499 42.77847389 -31.09056685
X -55.18051843 5.44663792 -10.89328799
X -32.01456301 26.43856173 5.14309997
X -7.91443523 17.62569471 -25.94744383
X -6.40291260 61.68995290 -42.77851533
X -19.20873781 59.11840604 -22.58125200
X -32.01456301 15.54527087 -6.73242767
X -50.28912846 23.07233934 -21.78658142
X -6.40291260 37.33184014 -10.89330224
X -12.80582520 36.84070207 -43.57315870
X -37.48330326 51.59134844 16.83102877
X -52.73482345 48.22512604 -10.09865262
X -60.64925868 44.06425564 -22.58124527
X -52.73482345 33.17096220 -40.20694670
X -29.56886802 31.39406751 -25.15279550
X 5.46874024 42.77847805 -21.78659022
X -24.67747805 51.59134092 -0.00002304
X 1.51152263 34.76027486 -31.88521774
X -26.54582277 43.26960187 -20.99193598
X -37.48330326 49.01977645 -19.21503713
X -36.90595299 46.63581339 -18.42038159
X -48.77760583 20.99191966 6.73241135
X -29.56886802 40.69804828 -15.84882305
X -24.67747805 18.91147150 -28.51900029
X -28.05734540 16.83103085 -46.93936012
X -29.56886802 23.07234685 -4.95552961
X -17.69721518 25.94743711 2.57154430
X -34.46025800 25.64389788 -15.84881632
X -6.40291260 33.17096220 -40.20694670
X -14.31734783 39.90339116 -21.78658894
X -34.46025800 58.32375227 -20.99194270
X 0.00000000 48.71624395 -22.58124736
X -21.65443279 1.28577008 -17.62570686
X -37.48330326 58.32375306 -19.21504128
X -17.69721518 41.98383932 13.46482270
X -48.77760583 23.56346396 -19.21502576
X -12.80582520 48.71623307 -46.93937437
X -24.10012778 38.92114943 -10.09864847
X -23.16595542 34.45674908 -20.19727757
X -13.73999756 62.48461754 -20.00969761
X -43.88621586 29.31363438 -26.74210352
X 3.95721762 16.33991039 -40.20693918
X -23.16595542 31.88519628 -13.27726322
X -37.48330326 44.85891196 -18.42038079
X -43.30886559 24.35811357 -30.10831167
X -12.80582520 28.51898814 -8.32174241
X -33.52608564 52.87711179 -15.84882849
X -35.97178063 57.83263517 -6.73244656
X -19.20873781 33.17099068 23.56345773
X -11.29430258 39.90338443 -36.84073935
X -36.90595299 29.01010524 -22.58123856
X -19.20873781 30.59941869 -12.48260817
X -20.14291017 38.61762108 -4.16088208
X -12.80582520 57.03797547 -18.42038624
X -60.64925868 30.59942126 -6.73243439
X -17.69721518 63.77039434 -22.58125408
X -37.48330326 35.55494207 -3.36622624
X -33.52608564 28.51897309 -41.98384604
X -67.05217128 35.25140285 -21.78658687
X -28.05734540 34.45673564 -50.30557836
X -55.18051843 40.69804077 -32.67987486
X -25.61165041 46.14468541 -28.51901246
X -28.63469567 24.35811949 -16.83106269
X -30.50304038 35.25139613 -36.84073726
X -8.84860759 9.60750576 -4.16086913
X -11.29430258 31.58165963 -25.94745006
X -20.14291017 33.47449807 -29.31366127
X -55.18051843 36.53717707 -30.10831711
X -7.33708496 34.45674652 -25.94745135
X -27.12317304 41.49270798 -4.16088337
X -46.33191084 36.84070207 -43.57315870
X -33.52608564 25.94743711 2.57154430
X -4.89138997 6.73240799 -28.51899486
X -11.29430258 30.59941038 -31.09056141
X -29.56886802 10.58975005 -10.09863582
X -67.05217128 35.25140957 -6.73243647
X -32.01456301 20.68838043 -11.68794927
X -23.16595542 49.51090779 -1.58933106
X -21.65443279 69.21703562 -25.94746687
X -2.44569499 10.09861614 -33.47451567
X -15.25152019 14.25949071 -11.68794641
X -7.33708496 36.04605582 -25.15279759
X -36.90595299 37.33182925 -35.25142925
X -27.12317304 33.17095469 -57.03799851
X -44.82038822 44.06425228 -30.10832048
X -28.05734540 12.67018062 -14.25950158
X -13.73999756 28.21545148 -20.99192926
X -50.28912846 27.23320639 -16.83106398
X -16.76304282 40.69804749 -17.62572447
X -20.14291017 47.92159354 -13.46486286
X -40.86317060 20.99190541 -25.15279086
X -15.25152019 42.77847805 -21.78659022
X -24.10012778 15.54525742 -36.84072846
X -43.88621586 36.04607006 6.73240463
X -48.77760583 52.08246138 -6.73244399
X -16.18569255 34.76028574 -7.52709072
X -15.25152019 -0.79467394 -43.57314190
X -43.30886559 32.67984094 -35.25142717
X 1.51152263 33.17096557 -32.67987150
X -30.50304038 31.09054588 -4.16087873
X -15.25152019 31.88519964 -5.75018801
X -6.40291260 57.52909258 -32.67988238
X -7.91443523 46.14467869 -43.57316285
X -38.41747561 46.14468956 -19.21503584
X -24.10012778 12.97370976 -18.42036656
X -14.31734783 35.74253755 3.36619439
X -10.36013022 56.24331578 -30.10832591
X -28.05734540 47.92159018 -20.99193806
X -32.94873537 20.99190206 -32.67986606
X -15.25152019 40.20691278 -42.77850573
X -42.37469323 44.85891533 -10.89330560
X -25.61165041 22.76880011 -40.20694205
X -52.73482345 41.49270045 -20.99193518
X 5.46874024 45.35002571 -40.20695214
X -40.86317060 3.36620400 -14.25949743
X -43.88621586 49.51089691 -25.94745807
X -16.18569255 46.63581675 -10.89330639
X -20.72026044 59.60952650 -29.31367295
X -39.92899824 65.85083499 -4.16089425
X -18.27456545 20.99190206 -32.67986606
X -55.18051843 43.26961275 3.36619104
X -17.69721518 24.35810605 -46.93936349
X -17.69721518 63.77039771 -15.05417888
X -15.25152019 44.36779071 -13.46486127
X -33.52608564 22.76881356 -10.09864125
X -2.44569499 31.88519470 -16.83106606
X -26.54582277 16.33992047 -17.62571358
X -37.48330326 47.43046635 -21.78659231
X -51.22330082 17.62569134 -33.47451903
X -20.72026044 35.25139949 -29.31366207
X -22.58860515 48.71624395 -22.58124736
X -43.30886559 48.71625067 -7.52709696
X -29.56886802 40.69804749 -17.62572447
X 5.46874024 14.25947647 -43.57314861
X -60.64925868 19.70612782 -24.35813582
X -38.41747561 17.62570558 -1.58931682
X -6.40291260 8.81284863 -10.09863503
X -20.14291017 23.56345308 -43.57315277
X -25.61165041 21.78656927 -4.16087457
X -21.65443279 16.33993135 6.73241343
X -32.01456301 33.17099068 23.56345773
X -33.52608564 43.57313774 -10.09865055
X -6.40291260 72.58324298 -32.67988910
X -40.86317060 27.72433852 2.57154351
X 5.46874024 42.77848141 -14.25951503
X -25.61165041 36.84071631 -11.68795649
X -51.22330082 43.57312686 -34.45677756
X -37.48330326 40.69803740 -40.20695005
X -17.69721518 31.09053085 -37.82298235
X -33.52608564 33.66210364 -0.00001503
X -15.25152019 49.51091452 13.46481934
X -32.01456301 22.27767214 -50.30557292
X 1.51152263 61.68996042 -25.94746351
X -17.69721518 37.82295308 -34.45677500
X -3.95721762 36.53718716 -7.52709152
X -21.65443279 44.85890524 -33.47453119
X -29.56886802 32.37631595 -21.78658558
X -20.72026044 41.98381084 -50.30558173
X -37.48330326 43.26960266 -19.21503456
X -28.05734540 57.83262508 -29.31367215
X -11.29430258 15.54525998 -31.09055468
X -35.97178063 27.72432093 -36.84073390
X -24.10012778 50.79667371 -28.51901453
X -0.93417236 43.26960187 -20.99193598
X -17.69721518 41.00156991 -36.84073984
X -24.10012778 39.90339195 -20.00968752
X -34.46025800 51.59133004 -24.35815006
X -27.12317304 28.02785343 -33.47452367
X -39.92899824 30.59942206 -4.95553297
X 0.00000000 24.35812030 -15.05416128
X -33.52608564 41.98382587 -16.64347809
X -46.33191084 33.66210364 -0.00001503
X -44.82038822 37.33184014 -10.89330224
X -36.90595299 15.54526750 -14.25950287
X -24.67747805 12.17904927 -31.88520766
X 1.51152263 26.43854333 -36.04607886
X -47.26608320 43.26960939 -4.16088416
X -33.52608564 32.67984094 -35.25142717
X -28.99151776 26.43855006 -20.99192846
X -13.73999756 27.23319630 -39.41228958
X -30.50304038 33.66210364 -0.00001503
X -9.78277995 52.87710842 -23.37590368
X -28.05734540 41.18917883 -0.00001840
X -41.44052087 39.41226397 -30.10831839
X -28.05734540 36.04604910 -40.20694798
X -30.50304038 6.73241471 -13.46484446
X -24.10012778 37.33184429 -1.58932562
X -4.89138997 35.25140957 -6.73243647
X -21.65443279 29.80476829 -3.36622368
X -23.16595542 10.09862207 -20.19726669
X -34.46025800 8.01819567 -6.73242431
X -24.10012778 26.43853918 -45.35005547
X -17.69721518 33.66209355 -22.58124063
X -19.20873781 35.74252332 -28.51900781
X -15.25152019 31.88519470 -16.83106606
X -23.16595542 38.61761851 -9.91105586
X -27.12317304 19.70613119 -16.83106062
X -46.33191084 63.77039434 -22.58125408
X -12.80582520 37.82296396 -10.09864798
X -24.10012778 30.59942126 -6.73243439
X -33.52608564 41.98382844 -10.89330432
X -25.61165041 8.32172224 -16.64346306
X -20.14291017 45.35003916 -10.09865135
X -17.69721518 26.92968140 -3.36622239
X -32.01456301 44.06427324 16.83103214
X -42.37469323 20.50078496 -18.42036991
X -30.50304038 25.94743295 -6.73243232
X -14.31734783 37.33183261 -27.72435405
X -44.82038822 54.95752731 -53.67179788
X -13.73999756 55.75219532 -23.37590497
X -33.52608564 43.57312429 -40.20695135
X -25.61165041 41.00157999 -14.25951424
X -13.73999756 14.75061038 -20.19726877
X -35.97178063 41.18916874 -22.58124399
X -15.25152019 19.40259276 -33.47451983
X -32.01456301 8.81284606 -15.84880881
X -20.72026044 37.82295387 -32.67987358
X -44.82038822 24.84925164 2.57154479
X -17.69721518 33.66209612 -16.83106685
X -56.69204106 52.08245466 -21.78659438
X -6.40291260 54.95753740 -31.09057228
X -21.65443279 25.64388957 -34.45676956
X -16.76304282 29.80475741 -27.72435069
X -2.44569499 46.93933165 -46.93937357
X -38.41747561 74.66368363 -14.25952927
X -16.76304282 42.28735679 -16.83107070
X -24.10012778 35.74253755 3.36619439
X -25.61165041 4.16086449 -0.79465633
X -4.89138997 55.44865530 -43.57316701
X -38.41747561 35.25138861 -53.67178908
X -6.40291260 24.84924827 -4.95553040
X -25.61165041 62.18108010 -34.45678587
X -29.56886802 47.43047308 -6.73244191
X -25.61165041 31.09054173 -13.46485534
X 1.51152263 8.81284863 -10.09863503
X -20.14291017 42.77848220 -12.48261361
X 3.02304526 52.87711515 -8.32175328
X -22.58860515 24.35811278 -31.88521309
X -25.61165041 18.60794315 -22.58123391
X -11.29430258 29.01010445 -24.35813997
X -28.99151776 46.63580666 -33.47453199
X -35.97178063 -0.79466721 -28.51899149
X -33.52608564 39.41227405 -7.52709281
X -7.33708496 30.29587867 -32.67987022
X -21.65443279 17.32216892 -14.25950366
X -25.61165041 9.30396317 -30.10830495
X -25.61165041 37.82295308 -34.45677500
X -47.26608320 38.12648895 -23.56348957
X -13.73999756 29.80475741 -27.72435069
X -17.69721518 47.73399550 -25.94745728
X -12.80582520 57.03797884 -10.89331103
X 11.87165285 36.53717707 -30.10831711
X -44.82038822 8.81284191 -25.15278543
X -15.25152019 5.93775502 -25.15278414
X -55.18051843 43.26960266 -19.21503456
X -48.77760583 30.29589627 6.73240719
X -29.56886802 33.96561101 -52.87713404
X -35.03760827 33.17097565 -10.09864590
X -16.76304282 42.28734334 -46.93937150
X -47.84343347 39.90338443 -36.84073935
X -16.76304282 20.50078159 -25.94744512
X -52.73482345 44.06425228 -30.10832048
X -25.61165041 43.57314526 6.73240127
X -15.25152019 31.88518125 -46.93936685
X -19.20873781 44.06425228 -30.10832048
X -38.41747561 31.09054668 -2.38397731
X -19.20873781 24.84924076 -21.78658222
X -2.44569499 38.61761693 -13.46485870
X -17.69721518 57.03797212 -25.94746144
X -8.84860759 33.96561517 -43.57315742
X -35.97178063 53.67177148 -4.16088880
X -21.65443279 55.75219867 -15.84882977
X -44.82038822 2.08042720 -11.68794096
X -41.44052087 21.78656511 -13.46485118
X -14.31734783 41.49269709 -28.51901038
X -44.82038822 15.54527166 -4.95552625
X -63.09495366 47.43046635 -21.78659231
X -3.95721762 18.91148238 -4.16087328
X -35.97178063 16.83104430 -16.83105933
X -3.95721762 16.33992384 -10.09863839
X -21.65443279 16.33991374 -32.67986398
X -13.73999756 45.84115962 -16.83107229
X -25.61165041 59.60952235 -38.61764957
X -14.31734783 15.54526078 -29.31365327
X -33.52608564 35.25140285 -21.78658687
X -10.36013022 34.45674652 -25.94745135
X -25.61165041 26.92966044 -50.30557500
X -23.16595542 10.09861614 -33.47451567
X -56.69204106 38.61762444 3.36619312
X -52.73482345 26.43856094 3.36619855
X -15.25152019 38.61761693 -13.46485870
X -28.05734540 45.35001820 -57.03800396
X -46.33191084 28.51898477 -15.84881760
X -33.52608564 13.46483359 -17.62571230
X -20.72026044 57.03797547 -18.42038624
X -35.03760827 26.43855342 -13.46485326
X -37.48330326 29.80476493 -10.89329887
X -42.37469323 33.96561853 -36.04608221
X -19.20873781 54.95753740 -31.09057228
X -36.90595299 44.06425484 -24.35814669
X -20.72026044 41.98383260 -1.58932769
X -37.48330326 44.85892621 13.46482142
X -10.36013022 41.18917547 -7.52709359
X -29.56886802 31.39408174 6.73240670
X -34.46025800 9.60750240 -11.68794432
X -19.20873781 50.79665947 -60.40421675
X -36.90595299 8.81284191 -25.15278543
X -32.01456301 4.65198494 -7.52707728
X -11.29430258 45.65355821 -36.84074191
X -29.56886802 23.07233261 -36.84073183
X -54.24634608 25.94742959 -14.25950751
X -38.41747561 63.77039771 -15.05417888
X -27.12317304 39.90339195 -20.00968752
X -21.65443279 36.53716955 -46.93936893
X -25.61165041 32.67985934 5.93775166
X -13.73999756 42.28736094 -7.52709408
X 0.00000000 43.57311677 -57.03800316
X -17.69721518 36.84071215 -20.99193310
X -33.52608564 63.77039771 -15.05417888
X -51.22330082 48.71625067 -7.52709696
X -35.97178063 49.51090700 -3.36623248
X -27.12317304 35.74252668 -20.99193261
X -37.48330326 31.39407502 -8.32174369
X -3.95721762 54.16288186 -33.47453535
X -35.97178063 34.45675067 -16.64347472
X -48.77760583 27.72432844 -20.00968209
X -11.29430258 33.17096972 -23.37589488
X -29.56886802 29.80475326 -37.02832731
X -21.65443279 60.89529658 -46.93937981
X -30.50304038 41.98382508 -18.42037952
X -9.78277995 46.14469965 3.36618975
X -40.86317060 56.24331578 -30.10832591
X -4.89138997 28.51898398 -17.62571903
X -2.44569499 41.18917883 -0.00001840
X -15.82887046 21.78656511 -13.46485118
X -20.72026044 37.82296475 -8.32174657
X -41.44052087 17.62569390 -27.72434525
X -32.01456301 49.81441854 -46.93937486
X -25.61165041 32.67985182 -10.89330016
X -32.01456301 76.74412091 -3.36624463
X -25.61165041 26.92967547 -16.64347137
X -4.89138997 41.98381836 -33.47452991
X -38.41747561 28.51898062 -25.15279422
X -29.56886802 40.69804077 -32.67987486
X -44.82038822 30.59941790 -14.25950959
X -46.33191084 24.35811949 -16.83106269
X -28.05734540 16.83104846 -7.52708271
X -47.84343347 30.59942126 -6.73243439
X -25.61165041 30.10829743 -7.52708864
X -20.14291017 29.31363023 -36.04608014
X -24.10012778 50.79668459 -4.16088753
X -16.76304282 32.37631260 -29.31366078
X -21.65443279 50.00201995 -26.92970523
X -28.63469567 46.14468620 -26.74211104
X -8.84860759 47.43047308 -6.73244191
X -42.37469323 50.00201402 -40.20695421
X -14.31734783 22.27768301 -25.94744591
X -31.08039065 31.88519133 -24.35814126
X -16.76304282 33.96562110 -30.29590844
X -38.41747561 13.46483438 -15.84881088
X -37.48330326 42.28736430 -0.00001889
X -28.99151776 23.86699566 -17.62571695
X -44.82038822 12.97370304 -33.47451695
X -23.16595542 7.52706847 -15.05415376
X -0.93417236 39.10874155 -10.89330302
X -20.14291017 45.35003244 -25.15280174
X -10.36013022 3.36619727 -29.31364783
X -32.01456301 50.79667371 -28.51901453
X -21.65443279 43.26959851 -28.51901118
X -34.46025800 44.85891196 -18.42038079
X -29.56886802 18.91148238 -4.16087328
X -20.72026044 26.92967468 -18.42037279
X -43.88621586 38.61761772 -11.68795728
X -16.76304282 5.44663119 -25.94743840
X -24.10012778 17.13458096 -4.16087249
X -2.44569499 27.72432428 -29.31365870
X -3.37986735 28.02785343 -33.47452367
X 9.42595786 23.86698895 -32.67986735
X -32.01456301 26.43853246 -60.40420588
X -43.88621586 46.93934253 -22.58124656
X -6.40291260 44.06425564 -22.58124527
X -19.20873781 19.70613614 -5.75018259
X -21.65443279 1.28576671 -25.15278206
X -13.73999756 51.59133420 -15.05417344
X -25.61165041 32.67984766 -20.19727677
X -32.01456301 48.22511180 -41.98385484
X -35.39443036 41.98382844 -10.89330432
X -37.48330326 36.53718380 -15.05416672
X -9.78277995 46.14469628 -4.16088544
X -27.12317304 31.58166299 -18.42037487
X -28.05734540 38.61760268 -45.35006091
X 0.00000000 50.30554573 -38.61764540
X -21.65443279 3.85732110 -28.51899357
X -15.25152019 10.09861198 -42.77849228
X -23.16595542 34.45675660 -3.36622575
X -10.36013022 42.77847805 -21.78659022
X -30.50304038 24.35811614 -24.35813789
X -13.73999756 12.17905263 -24.35813245
X -32.01456301 30.59941533 -20.00968337
X -4.89138997 46.14468956 -19.21503584
X -33.52608564 61.19883659 -26.74211776
X -29.56886802 17.32215884 -36.84072926
X -8.84860759 47.43045548 -46.14471932
X -27.12317304 24.84923740 -29.31365743
X -10.36013022 34.45674315 -33.47452655
X -6.40291260 26.43855006 -20.99192846
X -16.76304282 44.85890109 -42.77850781
X -44.82038822 26.43855758 -4.16087664
X -33.52608564 55.44865530 -43.57316701
X -8.84860759 39.10874155 -10.89330302
X -17.69721518 24.35809854 -63.77041531
X -21.65443279 50.00202746 -10.09865342
X -36.90595299 48.22512604 -10.09865262
X -32.01456301 24.84923403 -36.84073262
X -33.52608564 35.25140957 -6.73243647
X -21.65443279 59.91305900 -25.94746271
X -21.65443279 23.07233182 -38.61763325
X -23.16595542 41.18916122 -39.41229581
X -17.69721518 57.03797963 -9.11640962
X -19.20873781 68.42238186 -24.35815758
X -20.14291017 27.72432349 -31.09056013
X -19.20873781 44.06425980 -13.27726866
X -14.31734783 37.33184014 -10.89330224
X -33.52608564 37.82295387 -32.67987358
X 7.91443523 41.98382171 -25.94745471
X -37.48330326 34.94787371 -17.62572189
X -7.33708496 38.61761693 -13.46485870
X -29.56886802 25.64388700 -40.20694334
X -8.84860759 38.12647886 -46.14471517
X -56.69204106 45.35002907 -32.67987694
X -19.20873781 2.08042048 -26.74209136
X -7.33708496 25.15275902 -50.30557420
X -27.12317304 44.06426315 -5.75019346
X -38.41747561 25.94742287 -29.31365792
X -29.56886802 31.39406830 -23.37589409
X -34.46025800 33.96561101 -52.87713404
X -34.46025800 18.91147901 -11.68794848
X -6.40291260 50.79668043 -13.46486414
X -9.78277995 21.78656511 -13.46485118
X -4.89138997 55.44866202 -28.51901662
X -39.92899824 18.11682526 -10.09863918
X -38.41747561 74.66368698 -6.73245407
X -21.65443279 3.85732782 -13.46484318
X -48.77760583 62.97573049 -43.57317038
X -23.16595542 29.31363438 -26.74210352
X -10.36013022 49.51090700 -3.36623248
X -33.52608564 17.62569054 -35.25142045
X -24.10012778 37.33185101 13.46482478
X -35.03760827 26.43853998 -43.57315406
X -25.61165041 50.30556412 2.57153343
X 1.51152263 26.43855085 -19.21502704
X -43.88621586 36.04606669 -0.79467057
X -47.26608320 36.53718380 -15.05416672
X -37.48330326 44.85892285 5.93774622
X -4.89138997 15.05414031 -22.58123232
X -33.52608564 17.62569390 -27.72434525
X -11.87165285 29.80475821 -25.94744927
X -3.95721762 38.12648895 -23.56348957
X 3.02304526 41.98382171 -25.94745471
X -15.25152019 42.77847883 -20.00968881
X -16.76304282 38.12648301 -36.84073855
X -20.14291017 36.04606254 -10.09864719
X -21.65443279 36.53716204 -63.77042075
X -23.16595542 25.15278750 13.46483022
X -17.69721518 67.93127227 6.73239039
X -42.37469323 14.75061117 -18.42036735
X -4.89138997 33.66209355 -22.58124063
X -16.76304282 51.59133340 -16.83107486
X -25.61165041 8.32172896 -1.58931266
X -28.99151776 37.33183341 -25.94745264
X -38.41747561 67.93125131 -40.20696222
X -28.05734540 53.67176812 -11.68796400
X -23.16595542 27.72433101 -14.25950830
X -13.73999756 8.01817470 -53.67177692
X -22.58860515 28.51898734 -10.09864383
X -7.33708496 36.04607006 6.73240463
X -12.80582520 74.66367354 -36.84075487
X -28.63469567 21.78655839 -28.51900158
X -34.46025800 32.37631260 -29.31366078
X -29.56886802 34.94787371 -17.62572189
X -28.05734540 18.42035776 -6.73242895
X 0.00000000 0.00000000 0.00000000
X -13.73999756 47.43046635 -21.78659231
X -38.41747561 21.78656927 -4.16087457
X -2.44569499 42.77846717 -46.14471725
X -28.05734540 40.20691950 -27.72435534
X -32.01456301 6.24130177 10.09862831
X -39.92899824 33.17096972 -23.37589488
X -11.29430258 48.22511596 -32.67987823
X -2.44569499 67.13660506 -21.78660111
X -43.88621586 56.24332922 -0.00002512
X -15.82887046 41.98383181 -3.36622911
X -46.33191084 35.25139869 -31.09056348
X -54.24634608 48.71624730 -15.05417216
X -24.67747805 29.80476157 -18.42037407
X -47.84343347 54.95754907 -4.95554385
X 0.00000000 39.41226989 -16.83106942
X -12.80582520 10.89327999 -12.48259937
X -22.58860515 32.67984510 -25.94745055
X -20.72026044 17.62569390 -27.72434525
X -23.16595542 36.04605582 -25.15279759
X -26.54582277 50.00202074 -25.15280382
X -13.73999756 33.96563277 -4.16088001
X -19.20873781 13.95595484 -22.58123183
X -19.20873781 57.52908922 -40.20695758
X -35.97178063 31.88518046 -48.71626827
X -21.65443279 13.76837360 2.57154974
X -24.10012778 46.63580587 -35.25143340
X -36.90595299 44.06424812 -39.41229709
X -52.73482345 19.70612862 -22.58123440
X -3.95721762 40.69804749 -17.62572447
X -22.23178306 26.43854333 -36.04607886
X -46.33191084 39.41226733 -22.58124320
X -24.10012778 37.33182589 -42.77850445
X -51.22330082 21.78655166 -43.57315198
X -46.33191084 39.41226397 -30.10831839
X -43.88621586 25.15277998 -3.36622159
X 3.02304526 44.55538283 -14.25951582
X -6.40291260 46.63581675 -10.89330639
X -11.87165285 29.80476157 -18.42037407
X -14.31734783 44.06425564 -22.58124527
X -27.12317304 54.95755580 10.09860655
X -39.92899824 30.59941533 -20.00968337
X -28.05734540 7.52706512 -22.58122896
X -6.40291260 30.59940030 -53.67178700
X -28.99151776 19.70611775 -46.93936141
X -15.25152019 -0.79467057 -36.04606669
X -16.18569255 44.06425564 -22.58124527
X -17.69721518 37.82295644 -26.92969980
X -4.89138997 31.09053916 -19.21502912
X 3.95721762 16.33992047 -17.62571358
X -25.61165041 46.14468204 -36.04608766
X -55.18051843 27.23320303 -24.35813918
X -43.30886559 37.82296139 -15.84882176
X -54.24634608 44.55537274 -36.84074142
X -15.25152019 38.61761099 -26.74210768
X 1.51152263 37.33184349 -3.36622704
X -42.37469323 69.21703899 -18.42039167
X -20.72026044 21.78655918 -26.74210016
X -51.22330082 28.51898062 -25.15279422
X -24.10012778 52.38598380 -25.94745936
X -29.56886802 31.39407502 -8.32174369
X -7.33708496 36.04606669 -0.79467057
X -56.69204106 29.31363695 -20.99192975
X -23.16595542 25.15275902 -50.30557420
X -55.18051843 40.69804749 -17.62572447
X -25.61165041 20.19724573 -36.84073055
X -8.84860759 38.12647550 -53.67179037
X -47.26608320 40.69804749 -17.62572447
X -32.01456301 24.84924412 -14.25950702
X -15.25152019 45.35004331 -0.79467473
X -31.08039065 46.93934925 -7.52709616
X -40.86317060 38.61761099 -26.74210768
X -43.88621586 18.42034767 -29.31365455
X -21.65443279 18.91147486 -20.99192510
X -25.61165041 62.18107673 -41.98386108
X -10.36013022 3.36620735 -6.73242223
X -18.27456545 38.61761436 -19.21503248
X 1.51152263 33.17097309 -15.84881968
X -14.31734783 12.97370976 -18.42036656
X -41.44052087 44.55537611 -29.31366622
X -11.29430258 12.97371647 -3.36621615
X -21.65443279 40.69805243 -6.54484643
X -33.52608564 50.30555740 -12.48261697
X -17.69721518 13.46482270 -41.98383932
X -29.56886802 35.55494207 -3.36622624
X -8.84860759 33.96561438 -45.35005884
X -38.41747561 21.78656511 -13.46485118
X -25.61165041 78.82454138 -30.10833600
X -3.37986735 34.76028910 -0.00001552
X -25.61165041 52.87711436 -10.09865470
X -48.77760583 53.67175388 -43.57316622
X -42.37469323 42.28734670 -39.41229630
X -32.01456301 4.65197743 -24.35812909
X -24.67747805 58.32375306 -19.21504128
X -42.37469323 29.80474733 -50.30557629
X -47.26608320 32.37633019 10.09861663
X -39.92899824 23.86700319 -0.79466513
X -47.26608320 25.64390124 -8.32174113
X -19.20873781 29.01010108 -31.88521517
X -37.48330326 21.48302924 -24.35813661
X -41.44052087 57.03797627 -16.64348482
X -12.80582520 13.46483694 -10.09863710
X -17.69721518 59.60952650 -29.31367295
X -17.69721518 21.78656511 -13.46485118
X -3.37986735 41.49271133 3.36619183
X -32.01456301 42.47495226 -10.09865006
X -25.61165041 41.98381084 -50.30558173
X -42.37469323 9.60750912 3.36620607
X -12.80582520 10.89327663 -20.00967458
X -28.05734540 25.15275902 -50.30557420
X -6.40291260 29.01010187 -30.10831375
X -25.61165041 39.41225229 -56.24334683
X -21.65443279 10.58973660 -40.20693662
X -23.16595542 33.47450143 -21.78658607
X 11.87165285 29.80475485 -33.47452447
X -14.31734783 12.97371311 -10.89329136
X -34.46025800 23.07233182 -38.61763325
X -11.29430258 33.17096892 -25.15279631
X -16.18569255 30.59941454 -21.78658479
X -20.14291017 60.40418362 -23.37590704
X -33.52608564 57.03797627 -16.64348482
X -11.29430258 46.63581259 -20.19728301
X -39.92899824 44.06427324 16.83103214
X -15.25152019 46.93933165 -46.93937357
X -25.61165041 57.03798220 -3.36623583
X -33.52608564 33.66209355 -22.58124063
X -52.73482345 50.79667708 -20.99193934
X -23.16595542 33.47450479 -14.25951088
X -0.93417236 38.12648638 -29.31366335
X -50.28912846 20.50078496 -18.42036991
X -9.78277995 48.71624395 -22.58124736
X -3.37986735 15.54526335 -23.56347949
X -13.73999756 32.37631932 -14.25951039
X -12.80582520 52.87711852 -0.79467809
X -20.14291017 37.02830090 -29.31366285
X -15.25152019 46.93934253 -22.58124656
X -29.56886802 40.69805164 -8.32174785
X -33.52608564 20.19724909 -29.31365534
X -26.54582277 43.26961275 3.36619104
X -38.41747561 17.62568719 -42.77849565
X -14.31734783 33.17096220 -40.20694670
X -4.89138997 39.41227069 -15.05416800
X -46.33191084 48.71623979 -31.88522397
X -47.26608320 27.23320303 -24.35813918
X -40.86317060 20.99191293 -8.32173904
X -3.37986735 37.33184014 -10.89330224
X -12.80582520 10.89327247 -29.31365119
X -27.12317304 11.38439630 -28.51899694
X -4.89138997 20.19725245 -21.78658015
X -8.84860759 5.44663455 -18.42036319
X -17.69721518 52.87710763 -25.15280510
X -34.46025800 27.23320303 -24.35813918
X -44.82038822 41.49269630 -30.29591180
X -19.20873781 68.42238522 -16.83108238
X -37.48330326 8.01818815 -23.56347612
X -24.67747805 32.37632268 -6.73243518
X -51.22330082 70.50280569 -43.57317373
X -39.35164797 29.80476493 -10.89329887
X -21.65443279 34.94787707 -10.09864670
X -63.09495366 36.53719052 -0.00001631
X -40.86317060 40.20692287 -20.19728013
X -28.05734540 27.72432428 -29.31365870
X -25.61165041 22.76880348 -32.67986686
X -33.52608564 39.41226317 -31.88521981
X -32.94873537 18.42034767 -29.31365455
X -25.61165041 32.67984094 -35.25142717
X -52.73482345 19.70612526 -30.10830959
X -28.05734540 41.18917211 -15.05416879
X -42.37469323 32.37631932 -14.25951039
X -29.56886802 10.58973997 -32.67986141
X -27.12317304 30.59940030 -53.67178700
X -36.90595299 30.59940782 -36.84073519
X -6.40291260 44.06426572 -0.00001968
X -51.22330082 37.82295803 -23.37589696
X -19.20873781 20.68838043 -11.68794927
X -21.65443279 46.44822463 -10.09865184
X -17.69721518 22.76880011 -40.20694205
X -35.03760827 19.70611775 -46.93936141
X -41.44052087 43.57313181 -23.37589952
X -55.18051843 16.33991039 -40.20693918
X -32.01456301 45.65355405 -46.14471852
X -30.50304038 28.51897726 -32.67986942
X -17.69721518 32.67984510 -25.94745055
X -28.05734540 20.99190462 -26.92969228
X -32.01456301 35.74253004 -13.46485742
X -28.05734540 56.24332922 -0.00002512
X -15.25152019 45.35002155 -49.51092876
X -24.10012778 46.63581259 -20.19728301
X -19.20873781 48.22512269 -17.62572782
X -32.01456301 8.81284943 -8.32173361
X -34.46025800 20.50078831 -10.89329471
X -16.76304282 49.01976556 -43.57316414
X -3.37986735 30.59941790 -14.25950959
X -17.69721518 9.30396238 -31.88520637
X -33.52608564 24.35812702 -0.00001088
X -52.73482345 57.52910267 -10.09865679
X -2.44569499 23.56346396 -19.21502576
X -48.77760583 18.42035439 -14.25950415
X -11.29430258 39.90338364 -38.61764077
X -29.56886802 36.53718459 -13.27726529
X -10.36013022 20.99191293 -8.32173904
X -34.46025800 39.10874155 -10.89330302
X -11.29430258 22.27767549 -42.77849772
X -18.27456545 18.42035776 -6.73242895
X -19.20873781 8.81284527 -17.62571023
X -38.41747561 63.77039691 -16.83108029
X -24.10012778 37.33184014 -10.89330224
X -10.36013022 29.31364031 -13.46485454
X -12.80582520 17.62570894 5.93775838
X -16.76304282 31.39406415 -32.67987071
X -12.80582520 17.62569390 -27.72434525
X -16.76304282 12.17905679 -15.05415584
X -35.97178063 40.20692287 -20.19728013
X -29.56886802 51.59134507 9.30395358
X -19.20873781 56.54685086 -20.99194190
X -31.08039065 25.15277326 -18.42037200
X -28.63469567 17.62569390 -27.72434525
X -21.65443279 38.12648301 -36.84073855
X -20.72026044 33.66209691 -15.05416544
X -3.37986735 29.01010108 -31.88521517
X 0.00000000 41.98383181 -3.36622911
X -24.10012778 19.70612111 -39.41228621
X -38.41747561 50.30555997 -6.73244319
X -60.64925868 30.59941790 -14.25950959
X -33.52608564 35.25140364 -20.00968545
X -22.23178306 26.43855342 -13.46485326
X -11.29430258 37.33184765 5.93774958
X -16.76304282 39.10873482 -25.94745343
X -4.89138997 44.55537611 -29.31366622
X -17.69721518 46.14469371 -9.91105923
X -15.25152019 30.29588619 -15.84881840
X -28.99151776 19.70612782 -24.35813582
X -42.37469323 43.26959179 -43.57316157
X 7.91443523 35.25140285 -21.78658687
X -23.16595542 38.61761436 -19.21503248
X -40.86317060 16.83104509 -15.05415792
X -37.48330326 24.66165615 -4.16087585
X -12.80582520 26.92966796 -33.47452318
X -20.14291017 30.29588540 -17.62571982
X -39.92899824 31.58166635 -10.89329967
X -28.05734540 53.67176139 -26.74211441
X -59.13773605 52.87711436 -10.09865470
X -29.56886802 23.07232510 -53.67178364
X -29.56886802 44.85891117 -20.19728221
X -9.78277995 39.41226397 -30.10831839
X -34.46025800 33.96562941 -11.68795520
X -6.40291260 2.08043392 3.36620944
X -48.77760583 16.83105181 -0.00000751
X 1.51152263 48.22511260 -40.20695343
X -41.44052087 46.14469292 -11.68796065
X -28.05734540 27.72432093 -36.84073390
X -8.84860759 43.26959515 -36.04608637
X -37.48330326 20.50079168 -3.36621952
X -52.73482345 19.70612111 -39.41228621
X -29.56886802 58.32374555 -36.04609310
X -25.61165041 37.82294636 -49.51092539
X -28.63469567 24.35810605 -46.93936349
X -26.54582277 27.23319630 -39.41228958
X -39.92899824 28.02785679 -25.94744848
X -50.28912846 23.07233519 -31.09055804
X -29.56886802 44.85891196 -18.42038079
X -13.73999756 44.85891612 -9.11640418
X -2.44569499 27.72433101 -14.25950830
X -32.94873537 27.72432428 -29.31365870
X -34.46025800 16.33991790 -23.37588737
X -26.54582277 40.69805164 -8.32174785
X -12.80582520 33.66209019 -30.10831583
X -32.01456301 35.74252747 -19.21503119
X -17.69721518 55.44865866 -36.04609181
X -22.58860515 44.55537946 -21.78659103
X -39.92899824 35.74252332 -28.51900781
X -32.01456301 -2.08043728 -10.89328464
X -32.01456301 54.95754076 -23.56349709
X -7.33708496 20.99190206 -32.67986606
X -25.61165041 40.39450826 -36.04608509
X -28.99151776 33.17096892 -25.15279631
X -32.01456301 59.11840524 -24.35815341
X -32.94873537 45.35003995 -8.32174993
X -42.37469323 65.05616442 -40.20696094
X -43.88621586 25.15276911 -27.72434862
X -23.16595542 62.97574394 -13.46486958
X -11.29430258 18.11682526 -10.09863918
X -10.36013022 36.04604158 -57.03799980
X -8.84860759 8.01818222 -36.84072511
X -56.69204106 56.24332250 -15.05417551
X -6.40291260 12.97371311 -10.89329136
X -3.37986735 46.63581003 -25.94745679
X -6.40291260 61.68994955 -50.30559053
X -56.69204106 38.61761020 -28.51900910
X -55.18051843 58.32374218 -43.57316829
X -11.29430258 23.86698895 -32.67986735
X -60.64925868 50.79668795 3.36618767
X -26.54582277 23.07233934 -21.78658142
X -12.80582520 28.51899486 6.73240799
X -48.77760583 31.88519470 -16.83106606
X -35.97178063 10.09862207 -20.19726669
X 3.02304526 35.25140957 -6.73243647
X -56.69204106 27.72432093 -36.84073390
X -12.80582520 4.16086784 6.73241887
X -7.91443523 46.14468541 -28.51901246
X -39.92899824 19.70613535 -7.52708400
X -26.54582277 58.32375643 -11.68796608
X -27.12317304 41.49269374 -36.04608558
X -22.58860515 35.25139613 -36.84073726
X -17.69721518 50.30554653 -36.84074399
X -19.20873781 26.43855758 -4.16087664
X -46.33191084 17.62569727 -20.19727005
X -24.10012778 34.76027486 -31.88521774
X -30.50304038 35.25140957 -6.73243647
X -16.76304282 36.53718795 -5.75019010
X -27.12317304 18.11681516 -32.67986478
X -8.84860759 33.96562110 -30.29590844
X -23.16595542 7.52707184 -7.52707856
X -31.08039065 29.31363695 -20.99192975
X -32.94873537 52.08246138 -6.73244399
X -19.20873781 54.95754571 -12.48261905
X -34.46025800 36.53719052 -0.00001631
X -16.18569255 29.01009772 -39.41229037
X -7.33708496 46.93934925 -7.52709616
X -21.65443279 58.32375306 -19.21504128
X -19.20873781 46.63580251 -42.77850861
X -20.72026044 43.57313102 -25.15280095
X -20.14291017 47.92158346 -36.04608845
X -67.05217128 35.25140621 -14.25951167
X -3.95721762 36.53717707 -30.10831711
X -46.33191084 28.51898062 -25.15279422
X 1.51152263 54.95753820 -29.31367087
X -33.52608564 44.55537195 -38.61764284
X -36.90595299 37.33182253 -50.30557964
X -59.13773605 28.51897390 -40.20694463
X -35.97178063 36.04605245 -32.67987278
X -43.88621586 42.77848893 2.57153678
X -40.86317060 42.77847725 -23.56349164
X -21.65443279 40.69804492 -23.37589824
X -32.01456301 31.58166299 -18.42037487
X -16.76304282 43.26960524 -13.46486078
X -12.80582520 48.71624058 -30.10832255
X -29.56886802 51.59134172 1.77687838
X -52.73482345 19.70612447 -31.88521101
X -34.46025800 40.69804749 -17.62572447
X -26.54582277 23.07233854 -23.56348285
X -50.28912846 50.00201402 -40.20695421
X -10.36013022 49.51088939 -42.77850989
X -19.20873781 33.17095469 -57.03799851
X -27.12317304 30.59941533 -20.00968337
X -13.73999756 29.80475821 -25.94744927
X -36.90595299 34.76028159 -16.83106733
X -25.61165041 28.51897982 -26.92969564
X -21.65443279 29.80477245 5.93775295
X -24.10012778 39.90339868 -4.95553713
X -16.76304282 27.23321390 -0.00001216
X -12.80582520 46.14469292 -11.68796065
X -17.69721518 43.57314190 -0.79467394
X -35.97178063 20.99189869 -40.20694126
X -36.90595299 39.90338443 -36.84073935
X -39.92899824 34.76027150 -39.41229294
X -10.36013022 14.25949407 -4.16087120
X -32.94873537 25.15276990 -25.94744719
X -9.78277995 33.66209275 -24.35814205
X -20.72026044 52.87711515 -8.32175328
X -17.69721518 57.03798971 13.46481598
X -6.40291260 23.86698559 -40.20694254
X -23.16595542 -0.79466721 -28.51899149
X -15.25152019 20.99191293 -8.32173904
X -3.37986735 48.22512684 -8.32175121
X -50.28912846 50.00202074 -25.15280382
X -16.76304282 32.37632684 2.57154143
X 5.46874024 31.88519549 -15.05416463
X -19.20873781 35.74252747 -19.21503119
X -20.72026044 35.25140285 -21.78658687
X -21.65443279 13.76837696 10.09862494
X -47.84343347 30.59940782 -36.84073519
X -21.65443279 44.85890781 -27.72435741
X -27.12317304 24.84924748 -6.73243183
X -32.01456301 45.65356493 -21.78659152
X -16.76304282 40.69805501 -0.79467265
X -67.05217128 35.25139613 -36.84073726
X -35.03760827 23.86699566 -17.62571695
X -56.69204106 27.72432428 -29.31365870
X -15.25152019 27.72432844 -20.00968209
X -19.20873781 4.65197487 -30.10830287
X -25.61165041 28.51900238 23.56345981
X -12.80582520 39.41225645 -46.93937022
X -0.93417236 50.00202074 -25.15280382
X 3.95721762 27.23320639 -16.83106398
X -7.33708496 34.45673564 -50.30557836
X -30.50304038 52.87711436 -10.09865470
X -51.22330082 59.60952314 -36.84074815
X -22.58860515 41.98381836 -33.47452991
X -19.20873781 52.38598045 -33.47453456
X -36.90595299 12.97370304 -33.47451695
X -39.35164797 29.80475821 -25.94744927
X -35.97178063 31.88520301 1.77688718
X 15.82887046 41.98382508 -18.42037952
X -46.33191084 37.82295803 -23.37589696
X -8.84860759 20.50077823 -33.47452032
X -48.77760583 45.35003579 -17.62572654
X -11.29430258 53.36822138 -46.93937645
X -25.61165041 63.77039098 -30.10832928
X -21.65443279 28.21544890 -26.74210303
X -33.52608564 40.39450826 -36.04608509
X -22.58860515 31.09054173 -13.46485534
X -21.65443279 13.76837024 -4.95552545
X -29.56886802 44.85892621 13.46482142
X -32.01456301 48.22512269 -17.62572782
X -52.73482345 22.27768301 -25.94744591
X -51.22330082 13.46484446 6.73241471
X -3.37986735 22.27768221 -27.72434733
X -24.10012778 28.02786688 -3.36622288
X -32.01456301 41.49268621 -52.87713739
X -27.12317304 26.43855342 -13.46485326
X -25.61165041 61.19883580 -28.51901918
X -8.84860759 29.80476829 -3.36622368
X -39.92899824 19.70613198 -15.05415920
X 3.95721762 23.07233261 -36.84073183
X -43.88621586 18.42035103 -21.78657935
X -29.56886802 29.80475069 -42.77850109
X -6.40291260 23.86699903 -10.09864175
X -30.50304038 25.94742287 -29.31365792
X -16.18569255 39.90339116 -21.78658894
X -7.33708496 14.25947647 -43.57314861
X -23.16595542 64.56504732 -25.94746479
X -28.05734540 37.02830427 -21.78658766
X -20.72026044 21.78657263 3.36620063
X -35.97178063 41.18916122 -39.41229581
X -8.84860759 43.26961275 3.36619104
X -30.50304038 26.92967804 -10.89329759
X -52.73482345 26.43855006 -20.99192846
X -50.28912846 47.43047308 -6.73244191
X -19.20873781 68.42237177 -46.93938317
X -16.76304282 21.48303676 -7.52708479
X 9.42595786 44.06426572 -0.00001968
X -34.46025800 51.59132332 -39.41230045
X -31.08039065 38.61761099 -26.74210768
X -8.84860759 29.80475821 -25.94744927
X -2.44569499 18.42035776 -6.73242895
X 7.91443523 59.60952986 -21.78659775
X -32.94873537 42.77847468 -29.31366543
X -7.91443523 31.09053580 -26.74210431
X -16.76304282 18.91147486 -20.99192510
X -34.46025800 36.53719132 1.77688511
X -27.12317304 26.43853998 -43.57315406
X -36.90595299 30.59941038 -31.09056141
X -33.52608564 10.89328255 -6.73242559
X -11.29430258 37.33183341 -25.94745264
X -43.30886559 46.14468876 -20.99193726
X -13.73999756 35.55493535 -18.42037664
X -2.44569499 20.99189869 -40.20694126
X -42.37469323 8.01819230 -14.25949950
X -67.05217128 21.78655166 -43.57315198
X -13.73999756 14.75059693 -50.30556956
X -8.84860759 14.75060781 -25.94744255
X -46.33191084 37.82296811 -0.79467136
X -54.24634608 25.94742287 -29.31365792
X -27.12317304 29.01010524 -22.58123856
X -12.80582520 39.41227069 -15.05416800
X -32.01456301 54.95753820 -29.31367087
X -60.64925868 39.90339452 -14.25951375
X -32.01456301 41.49269293 -37.82298700
X 3.02304526 28.51898062 -25.15279422
X -35.97178063 34.45674908 -20.19727757
X -52.73482345 50.79668043 -13.46486414
X -17.69721518 54.46642109 -15.05417473
X -24.67747805 40.69805501 -0.79467265
X -33.52608564 25.94744047 10.09861950
X -20.72026044 24.35812702 -0.00001088
X -10.36013022 16.83105181 -0.00000751
X -24.10012778 39.90338443 -36.84073935
X -16.76304282 16.33991711 -25.15278878
X -0.93417236 29.80476829 -3.36622368
X -8.84860759 16.33991711 -25.15278878
X -23.16595542 34.45675404 -9.11639953
X -10.36013022 30.29588955 -8.32174320
X -17.69721518 26.92966716 -35.25142460
X -31.08039065 42.77848220 -12.48261361
X -32.01456301 63.27926972 -25.15280974
X 3.95721762 44.85890781 -27.72435741
X -7.33708496 34.45674988 -18.42037615
X -15.25152019 31.88517709 -56.24334347
X -14.31734783 30.59941454 -21.78658479
X -25.61165041 54.46642445 -7.52709953
X -23.16595542 23.56346396 -19.21502576
X 0.00000000 43.57312013 -49.51092796
X -38.41747561 50.30553901 -53.67179581
X 7.91443523 32.67984094 -35.25142717
X -16.76304282 54.16288443 -27.72436157
X -24.67747805 54.16289195 -10.89330975
X -43.30886559 10.89327247 -29.31365119
X -23.16595542 64.56505404 -10.89331440
X -3.95721762 5.44662783 -33.47451359
X -60.64925868 37.33184014 -10.89330224
X -24.67747805 18.91146477 -43.57315069
X -33.52608564 47.73399886 -18.42038208
X -25.61165041 22.76881099 -15.84881504
X -19.20873781 59.11840860 -16.83107822
X 7.91443523 21.78656511 -13.46485118
X -29.56886802 14.75061117 -18.42036735
X -46.33191084 33.66209019 -30.10831583
X -22.58860515 35.25140621 -14.25951167
X -29.56886802 25.64389709 -17.62571774
X -32.01456301 45.65356158 -29.31366672
X -35.97178063 29.31364783 3.36619727
X -32.94873537 36.04605918 -17.62572238
X -16.76304282 49.01977901 -13.46486335
X -19.20873781 12.97371391 -9.11638994
X -17.69721518 31.09052828 -43.57315614
X -8.84860759 51.59132668 -31.88522526
X -13.73999756 14.75060365 -35.25141916
X -46.33191084 31.09054252 -11.68795392
X -12.80582520 10.89328671 2.57155103
X -48.77760583 62.97574058 -20.99194478
X -8.84860759 54.16288522 -25.94746015
X -13.73999756 62.48462763 2.57152799
X -30.50304038 63.77040443 -0.00002848
X 1.51152263 48.22511596 -32.67987823
X -32.01456301 49.81442862 -24.35814926
X -8.84860759 25.64388700 -40.20694334
X -19.20873781 46.63581259 -20.19728301
X -25.61165041 35.25140957 -6.73243647
X -7.33708496 36.04605245 -32.67987278
X -38.41747561 39.41227405 -7.52709281
X -51.22330082 17.62570478 -3.36621824
X -27.12317304 37.33183677 -18.42037743
X -9.78277995 36.84070958 -26.74210689
X -8.84860759 60.89531002 -16.83107901
X 0.00000000 50.30554909 -31.09057021
X -26.54582277 31.39406751 -25.15279550
X -34.46025800 31.39407423 -10.09864511
X -35.97178063 10.09861535 -35.25141709
X -34.46025800 29.80475821 -25.94744927
X -32.01456301 44.06425148 -31.88522190
X -43.88621586 38.61761693 -13.46485870
X -32.94873537 36.04606254 -10.09864719
X -30.50304038 32.67984174 -33.47452576
X -12.80582520 41.98383181 -3.36622911
X -35.03760827 29.01010445 -24.35813997
X -39.92899824 30.59940366 -46.14471180
X -35.39443036 28.51897726 -32.67986942
X -7.33708496 31.88519133 -24.35814126
X -27.12317304 39.90339788 -6.73243855
X -44.82038822 45.65355405 -46.14471852
X -2.44569499 25.15277998 -3.36622159
X -12.80582520 26.92968556 5.93775423
X -12.80582520 24.35812702 -0.00001088
X -19.20873781 30.59940702 -38.61763660
X -43.88621586 60.40419707 6.73239376
X -28.05734540 -0.79466721 -28.51899149
X -8.84860759 21.48303676 -7.52708479
X -32.01456301 45.65355070 -53.67179372
X -26.54582277 40.69804412 -25.15279966
X -35.97178063 45.35002571 -40.20695214
X -27.12317304 22.27767886 -35.25142253
X -33.52608564 21.78655918 -26.74210016
X -19.20873781 12.97370639 -25.94744175
X -15.25152019 51.10021294 -10.09865391
X -56.69204106 56.24332587 -7.52710032
X -28.99151776 39.90339788 -6.73243855
X -25.61165041 61.19882908 -43.57316958
X -32.01456301 45.65356415 -23.56349293
X -23.16595542 47.92158682 -28.51901325
X -21.65443279 47.43045211 -53.67179453
X -30.50304038 41.98382844 -10.89330432
X -8.84860759 47.43046971 -14.25951711
X -3.37986735 29.01010445 -24.35813997
X -17.69721518 22.76881020 -17.62571646
X -20.72026044 37.82295052 -40.20694878
X -28.05734540 10.09861198 -42.77849228
X -46.33191084 46.14468541 -28.51901246
X -17.69721518 37.82295724 -25.15279838
X -35.97178063 44.36778062 -36.04608686
X -25.61165041 21.78655503 -36.04607678
X -48.77760583 16.83104509 -15.05415792
X -4.89138997 24.35810605 -46.93936349
X -19.20873781 41.49269293 -37.82298700
X -33.52608564 67.93125883 -23.37591041
X -44.82038822 45.65356078 -31.09056813
X -46.33191084 24.35811693 -22.58123647
X -47.84343347 41.49271133 3.36619183
X -32.01456301 31.58166635 -10.89329967
X -34.46025800 21.48303340 -15.05415999
X -35.97178063 34.45675660 -3.36622575
X -40.86317060 49.51090363 -10.89330767
X -25.61165041 52.87710347 -34.45678172
X -46.33191084 57.03798220 -3.36623583
X 0.00000000 52.87710427 -32.67988030
X -20.14291017 27.72431677 -46.14471052
X -12.80582520 48.71624730 -15.05417216
X -21.65443279 21.48303340 -15.05415999
X -3.37986735 39.90338443 -36.84073935
X -46.33191084 41.98383260 -1.58932769
X -32.01456301 54.95753483 -36.84074607
X 3.95721762 47.43046299 -29.31366750
X -32.01456301 12.97372063 5.93776046
X -28.05734540 49.51090028 -18.42038287
X -4.89138997 31.09053165 -36.04608093
X -6.40291260 39.90339868 -4.95553713
X -19.20873781 23.86699647 -15.84881553
X -25.61165041 20.19725581 -14.25950495
X -23.16595542 25.15278078 -1.58932017
X 1.51152263 46.63581675 -10.89330639
X -33.52608564 57.03797963 -9.11640962
X -16.76304282 49.01977229 -28.51901374
X -23.16595542 29.31364783 3.36619727
X -4.89138997 28.51898477 -15.84881760
X -20.72026044 52.87710091 -40.20695550
X 3.02304526 46.14468620 -26.74211104
X -47.26608320 12.17906014 -7.52708064
X -30.50304038 10.89327584 -21.78657599
X -17.69721518 37.82294972 -41.98385020
X -48.77760583 42.77847053 -38.61764205
X -47.84343347 39.90339788 -6.73243855
X -48.77760583 27.72433437 -6.73243311
X -23.16595542 47.92159354 -13.46486286
X -33.52608564 35.25139533 -38.61763868
X -24.10012778 30.59941118 -29.31365999
X -32.01456301 48.22511517 -34.45677965
X -15.25152019 41.18916538 -30.10831919
X -21.65443279 49.01977309 -26.74211232
X -20.14291017 38.61761772 -11.68795728
X -20.14291017 34.45674315 -33.47452655
X -28.05734540 45.35003995 -8.32174993
X -33.52608564 50.30555325 -21.78659359
X -19.20873781 54.95753820 -29.31367087
X -11.29430258 50.79667371 -28.51901453
X -34.46025800 36.53718795 -5.75019010
X -25.61165041 25.94742623 -21.78658271
X -39.92899824 48.22511260 -40.20695343
X -29.56886802 49.01977229 -28.51901374
X -43.88621586 42.77848556 -4.95553841
X -11.29430258 39.90339116 -21.78658894
X 9.42595786 37.33183341 -25.94745264
X -8.84860759 54.16287771 -42.77851197
X -16.76304282 23.07233598 -29.31365662
X -25.61165041 44.55538619 -6.73244062
X -37.48330326 33.96563277 -4.16088001
X -36.90595299 54.95753820 -29.31367087
X -38.41747561 35.25140621 -14.25951167
X -46.33191084 41.98381084 -50.30558173
X -16.76304282 25.64390797 6.73240928
X -41.44052087 40.39450826 -36.04608509
X -38.41747561 52.87712187 6.73239711
X -48.77760583 45.35003916 -10.09865135
X -38.41747561 57.03798220 -3.36623583
X -32.01456301 29.01009772 -39.41229037
X -28.05734540 10.09860862 -50.30556749
X -40.86317060 42.77847805 -21.78659022
X -16.76304282 55.75218780 -40.20695678
X 0.00000000 20.19725997 -4.95552833
X -13.73999756 18.91145726 -60.40420251
X -50.28912846 16.33992384 -10.09863839
X -15.82887046 28.51898062 -25.15279422
X -15.25152019 14.25949743 3.36620400
X -52.73482345 37.33183004 -33.47452783
X -6.40291260 8.81284191 -25.15278543
X 11.87165285 40.69804077 -32.67987486
X -28.63469567 35.25140285 -21.78658687
X -12.80582520 24.35813454 16.83104094
X -25.61165041 37.82296139 -15.84882176
X -29.56886802 40.69804333 -26.92970108
X -19.20873781 53.36823146 -24.35815085
X -27.12317304 33.17097644 -8.32174448
X -34.46025800 32.37632684 2.57154143
X -39.92899824 46.63582011 -3.36623119
X -28.05734540 16.83104430 -16.83105933
X -25.61165041 50.30555740 -12.48261697
X -42.37469323 54.16288106 -35.25143677
X -47.26608320 44.85890445 -35.25143261
X -33.52608564 2.57153343 -50.30556412
X -12.80582520 13.46483022 -25.15278750
X -19.20873781 22.27768973 -10.89329551
X -38.41747561 13.46482349 -40.20693790
X 5.46874024 18.42034767 -29.31365455
X -37.48330326 27.23320718 -15.05416256
X -33.52608564 36.84072302 3.36619391
X -10.36013022 16.83104173 -22.58123312
X -38.41747561 63.77039434 -22.58125408
X 9.42595786 33.17097565 -10.09864590
X -38.41747561 15.05414704 -7.52708192
X -44.82038822 26.43854749 -26.74210224
X -19.20873781 29.01010187 -30.10831375
X 3.95721762 36.53717707 -30.10831711
X -47.26608320 18.91148238 -4.16087328
X 0.00000000 32.67983422 -50.30557757
X -28.05734540 12.67017052 -36.84072718
X -42.37469323 25.64389788 -15.84881632
X -7.33708496 45.35003579 -17.62572654
X -15.25152019 53.67176476 -19.21503920
X -3.95721762 18.91147229 -26.74209887
X -22.23178306 33.17097565 -10.09864590
X -13.73999756 43.26960603 -11.68795936
X -40.86317060 27.72432844 -20.00968209
X -55.18051843 36.53718044 -22.58124191
X -52.73482345 26.43855085 -19.21502704
X -20.72026044 17.62568382 -50.30557085
X -55.18051843 43.26960603 -11.68795936
X -7.91443523 17.62569134 -33.47451903
X -6.40291260 65.85081739 -43.57317166
X -8.84860759 32.37632684 2.57154143
X -13.73999756 32.37632268 -6.73243518
X -6.40291260 45.65355405 -46.14471852
X -7.91443523 31.09054588 -4.16087873
X -15.25152019 31.88518797 -31.88521646
X -2.44569499 38.61761436 -19.21503248
X -25.61165041 24.35811693 -22.58123647
X -19.20873781 65.85082826 -19.21504464
X -59.13773605 48.71624395 -22.58124736
X -32.01456301 56.54685086 -20.99194190
X -11.29430258 52.38598380 -25.94745936
X -26.54582277 39.10874491 -3.36622783
X -21.65443279 73.37790010 -26.74212320
X 3.02304526 46.14468956 -19.21503584
X 1.51152263 46.63581003 -25.94745679
X -8.84860759 27.23319967 -31.88521437
X -51.22330082 10.89327247 -29.31365119
X -54.24634608 31.09053500 -28.51900573
X -25.61165041 43.57313437 -17.62572575
X -42.37469323 23.07234606 -6.73243103
X -30.50304038 46.14468204 -36.04608766
X 3.02304526 41.98381836 -33.47452991
X -35.97178063 14.25947647 -43.57314861
X -8.84860759 33.96563277 -4.16088001
X -0.93417236 43.26959515 -36.04608637
X -10.36013022 31.88518125 -46.93936685
X -28.05734540 19.40260620 -3.36621903
X -30.50304038 59.60953659 -6.73244735
X -28.05734540 49.51089276 -35.25143469
X -38.41747561 35.25140285 -21.78658687
X -19.20873781 45.65356415 -23.56349293
X -11.29430258 22.27769310 -3.36622031
X -7.33708496 14.25948319 -28.51899822
X -27.12317304 48.22511596 -32.67987823
X 3.95721762 58.32375227 -20.99194270
X -25.61165041 28.51898734 -10.09864383
X 3.02304526 44.55538619 -6.73244062
X -38.41747561 20.19725245 -21.78658015
X -16.76304282 40.69802988 -57.03800188
X -21.65443279 53.18064350 -14.25951968
X -25.61165041 41.00157326 -29.31366464
X -10.36013022 38.61762108 -4.16088208
X -28.05734540 29.31363695 -20.99192975
X -16.76304282 36.53718459 -13.27726529
X -24.10012778 35.74253083 -11.68795600
X -31.08039065 34.45674315 -33.47452655
X -21.65443279 49.01977901 -13.46486335
X -28.99151776 26.43855342 -13.46485326
X -24.10012778 34.76026815 -46.93936813
X -24.67747805 20.50078159 -25.94744512
X 1.51152263 39.90339452 -14.25951375
X -42.37469323 25.64388700 -40.20694334
X -30.50304038 21.78655503 -36.04607678
X -25.61165041 13.46482349 -40.20693790
X 3.95721762 65.05617787 -10.09866014
X -6.40291260 44.06425228 -30.10832048
X -12.80582520 17.62569727 -20.19727005
X -27.12317304 35.74253004 -13.46485742
X -33.52608564 31.09053500 -28.51900573
X -33.52608564 36.84071215 -20.99193310
X 9.42595786 46.63581339 -18.42038159
X -18.27456545 52.08245803 -14.25951919
X -55.18051843 25.64389452 -23.37589152
X -12.80582520 46.14467869 -43.57316285
X -21.65443279 34.94787034 -25.15279710
X -11.29430258 26.43854254 -37.82298028
X 0.00000000 63.77038683 -39.41230589
X -6.40291260 11.38439709 -26.74209552
X -46.33191084 35.25140957 -6.73243647
X -32.01456301 17.13458432 3.36620272
X -43.30886559 48.71624058 -30.10832255
X -34.46025800 25.64390460 -0.79466593
X -16.76304282 5.44663455 -18.42036319
X -34.46025800 43.26959851 -28.51901118
X -16.76304282 32.37631595 -21.78658558
X -22.23178306 39.90339452 -14.25951375
X -39.92899824 8.81284863 -10.09863503
X -19.20873781 39.90339531 -12.48261232
X -17.69721518 54.46642445 -7.52709953
X -19.20873781 44.06426652 1.77688174
X -35.97178063 52.08245051 -31.09057100
X -30.50304038 31.09053165 -36.04608093
X -55.18051843 16.33992384 -10.09863839
X -25.61165041 21.78655166 -43.57315198
X -27.12317304 42.47494219 -32.67987565
X -42.37469323 23.07233598 -29.31365662
X -29.56886802 25.64390797 6.73240928
X -34.46025800 47.43045548 -46.14471932
X -24.10012778 54.95754235 -20.00969425
X -63.09495366 23.07233261 -36.84073183
X -25.61165041 70.50281241 -28.51902334
X -28.05734540 10.09861614 -33.47451567
X -40.86317060 18.42035776 -6.73242895
X -10.36013022 14.25948398 -26.74209680
X -9.78277995 31.09053500 -28.51900573
X -30.50304038 24.35811278 -31.88521309
X -9.78277995 31.09053837 -20.99193054
X -14.31734783 26.43855085 -19.21502704
X 1.51152263 57.52908922 -40.20695758
X -20.72026044 41.98381836 -33.47452991
X 0.00000000 26.92967884 -9.11639617
X -29.56886802 27.23320718 -15.05416256
X -35.97178063 34.45674315 -33.47452655
X -33.52608564 26.92967468 -18.42037279
X -59.13773605 35.25139949 -29.31366207
X -52.73482345 39.90340203 2.57153807
X -7.91443523 39.41226317 -31.88521981
X -11.87165285 36.53719052 -0.00001631
X -14.31734783 50.79667708 -20.99193934
X -25.61165041 37.82295803 -23.37589696
X -29.56886802 27.23319294 -46.93936477
X -24.10012778 45.65356158 -29.31366672
X -15.25152019 10.09862622 -10.89329007
X 0.00000000 46.14468204 -36.04608766
X 5.46874024 45.35003916 -10.09865135
X -29.56886802 39.10872731 -42.77850524
X 7.91443523 37.82296475 -8.32174657
X -28.05734540 57.83263517 -6.73244656
X -6.40291260 65.85083083 -13.46487086
X -29.56886802 18.91145726 -60.40420251
X -8.84860759 40.69803661 -41.98385148
X -28.05734540 20.99190541 -25.15279086
X -7.33708496 33.47450479 -14.25951088
X -27.12317304 46.63580587 -35.25143340
X -27.12317304 39.90338028 -46.14471596
X -10.36013022 40.20691278 -42.77850573
X 0.00000000 21.78655166 -43.57315198
X -39.92899824 30.59942542 2.57154223
X -38.41747561 32.67985182 -10.89330016
X -43.88621586 30.29588876 -10.09864462
X -21.65443279 33.96564029 12.67017182
X -36.90595299 30.59941790 -14.25950959
X -16.76304282 36.53717292 -39.41229373
X -32.01456301 8.81284527 -17.62571023
X -30.50304038 33.66209019 -30.10831583
X -28.05734540 33.47450815 -6.73243567
X -21.65443279 49.01978653 3.36618848
X -20.72026044 17.62570143 -10.89329344
X -10.36013022 38.61761436 -19.21503248
X -2.44569499 30.29588282 -23.37589360
X 1.51152263 26.43855758 -4.16087664
X 15.82887046 28.51897726 -32.67986942
X -29.56886802 36.53718300 -16.83106814
X -27.12317304 24.84923403 -36.84073262
X -37.48330326 25.64389294 -26.92969436
X -38.41747561 20.19726669 10.09862207
X -29.56886802 62.48462012 -14.25952383
X -28.05734540 18.42035855 -4.95552754
X -28.05734540 10.09861950 -25.94744047
X -2.44569499 14.25947647 -43.57314861
X -19.20873781 18.11682526 -10.09863918
X -11.29430258 26.43854749 -26.74210224
X -3.95721762 33.96562862 -13.46485663
X -59.13773605 35.25140285 -21.78658687
X -44.82038822 41.49268621 -52.87713739
X 5.46874024 38.61761693 -13.46485870
X -40.86317060 25.15277246 -20.19727342
X -35.03760827 54.95754907 -4.95554385
X -15.25152019 56.24331578 -30.10832591
X 0.00000000 32.67984766 -20.19727677
X -3.37986735 42.47494891 -17.62572526
X -39.35164797 40.69803740 -40.20695005
X -31.08039065 20.99190878 -17.62571567
X -16.76304282 55.75220125 -10.09865599
X -39.35164797 33.96562862 -13.46485663
X -32.01456301 52.38597293 -50.30558637
X -29.56886802 43.26959435 -37.82298779
X -48.77760583 49.51089691 -25.94745807
X 0.00000000 39.41225645 -46.93937022
X -60.64925868 44.06425900 -15.05417008
X -30.50304038 31.09053580 -26.74210431
X -27.12317304 11.38440302 -13.46484653
X -35.97178063 67.13660842 -14.25952591
X -17.69721518 13.46483022 -25.15278750
X -21.65443279 59.91306237 -18.42038752
X -43.88621586 42.77847132 -36.84074063
X -28.05734540 5.93775166 -32.67985934
X -15.25152019 5.93775838 -17.62570894
X -42.37469323 51.59133756 -7.52709823
X 7.91443523 31.09053580 -26.74210431
X -26.54582277 33.96562605 -19.21503040
X -23.16595542 25.15276239 -42.77849901
X -35.39443036 35.25140957 -6.73243647
X 5.46874024 25.15276990 -25.94744719
X -17.69721518 26.92967468 -18.42037279
X -39.35164797 23.07234606 -6.73243103
X 3.95721762 16.33991374 -32.67986398
X -16.76304282 58.32375979 -4.16089088
X -19.20873781 19.70614622 16.83104302
X -31.08039065 40.20691694 -33.47452911
X -39.92899824 34.76027566 -30.10831632
X -37.48330326 51.59133083 -22.58124864
X -32.01456301 6.24129840 2.57155310
X -37.48330326 49.01978317 -4.16088673
X -43.88621586 60.40418699 -15.84883185
X -24.67747805 39.10874155 -10.89330302
X -20.72026044 39.41225645 -46.93937022
X -25.61165041 40.39451835 -13.46485949
X -37.48330326 33.96562190 -28.51900702
X -24.67747805 47.43046971 -14.25951711
X -47.84343347 41.49270461 -11.68795856
X -2.44569499 45.35002571 -40.20695214
X -34.46025800 40.69805836 6.73240255
X -41.44052087 48.71624395 -22.58124736
X -10.36013022 10.09862622 -10.89329007
X -0.93417236 29.80475741 -27.72435069
X -51.22330082 17.62569471 -25.94744383
X 11.87165285 36.53718044 -22.58124191
X -28.99151776 50.79668459 -4.16088753
X -32.01456301 50.79666955 -37.82299115
X -14.31734783 50.79668043 -13.46486414
X -28.63469567 41.98382844 -10.89330432
X -55.18051843 54.16288186 -33.47453535
X -15.25152019 62.97573386 -36.04609517
X -29.56886802 32.37632684 2.57154143
X -21.65443279 43.26961275 3.36619104
X -24.67747805 40.69805164 -8.32174785
X -17.69721518 44.55537611 -29.31366622
X -12.80582520 44.55538283 -14.25951582
X -41.44052087 41.98382171 -25.94745471
X -39.92899824 39.90339531 -12.48261232
X -17.69721518 59.60952986 -21.78659775
X -51.22330082 41.98381836 -33.47452991
X -24.10012778 22.27767214 -50.30557292
X -33.52608564 2.57153678 -42.77848893
X -29.56886802 60.89531002 -16.83107901
X -0.93417236 36.53718716 -7.52709152
X -3.95721762 33.96561853 -36.04608221
X -50.28912846 40.69805084 -10.09864927
X -35.97178063 45.35004667 6.73240047
X -34.46025800 33.96561438 -45.35005884
X -16.76304282 40.69805084 -10.09864927
X -21.65443279 44.85891533 -10.89330560
X -8.84860759 54.16288106 -35.25143677
X -26.54582277 27.23319294 -46.93936477
X -12.80582520 -0.00000336 -7.52707520
X -29.56886802 40.69804492 -23.37589824
X -25.61165041 24.35811614 -24.35813789
X -38.41747561 59.60952570 -31.09057437
X 7.91443523 39.41226989 -16.83106942
X -42.37469323 32.37632684 2.57154143
X -37.48330326 36.53718044 -22.58124191
X -0.93417236 31.39407087 -17.62572031
X -44.82038822 46.63581675 -10.89330639
X -16.18569255 41.49270125 -19.21503377
X -10.36013022 14.25947647 -43.57314861
X -32.01456301 48.22511260 -40.20695343
X 3.02304526 28.51898734 -10.09864383
X -48.77760583 49.51090700 -3.36623248
X -33.52608564 17.62569471 -25.94744383
X -18.27456545 14.25948655 -20.99192302
X -31.08039065 29.31364031 -13.46485454
X -16.76304282 40.69804828 -15.84882305
X -59.13773605 46.14468541 -28.51901246
X -8.84860759 47.43048060 10.09860991
X 5.46874024 25.15276654 -33.47452239
X -34.46025800 21.48303676 -7.52708479
X -46.33191084 63.77040443 -0.00002848
X -19.20873781 41.49270382 -13.46485998
X -11.29430258 57.52909258 -32.67988238
X -43.30886559 21.78655166 -43.57315198
X -13.73999756 16.33992384 -10.09863839
X 5.46874024 20.99190541 -25.15279086
X -3.37986735 23.86698895 -32.67986735
X -23.16595542 60.40419707 6.73239376
X -21.65443279 73.37791018 -4.16089760
X -28.05734540 57.83262845 -21.78659695
X -32.01456301 19.70613871 -0.00000880
X -3.95721762 54.16288858 -18.42038495
X -27.12317304 33.17096813 -26.92969772
X -39.92899824 24.84923740 -29.31365743
X -56.69204106 31.88518125 -46.93936685
X -6.40291260 39.90340203 2.57153807
X -21.65443279 28.21544139 -43.57315484
X -42.37469323 58.32375643 -11.68796608
X -11.29430258 41.49270798 -4.16088337
X -44.82038822 54.95754828 -6.73244527
X 1.51152263 61.68996379 -18.42038831
X -7.33708496 41.18917211 -15.05416879
X 7.91443523 32.67983422 -50.30557757
X -10.36013022 29.31363358 -28.51900494
X -37.48330326 47.43046715 -20.00969089
X -12.80582520 50.30555245 -23.56349501
X -39.92899824 15.54526414 -21.78657807
X -25.61165041 29.50122235 -36.84073470
X -40.86317060 31.88520222 -0.00001424
X -47.26608320 58.32374555 -36.04609310
X -11.29430258 19.70613198 -15.05415920
X -29.56886802 24.66165952 3.36619935
X -23.16595542 16.83103085 -46.93936012
X -25.61165041 50.30555660 -14.25951839
X 5.46874024 14.25948991 -13.46484783
X 3.95721762 43.26959931 -26.74210976
X -15.25152019 36.04605166 -34.45677420
X -33.52608564 24.35811278 -31.88521309
X -24.67747805 43.26960524 -13.46486078
X -13.73999756 34.94786362 -40.20694749
X -9.78277995 28.51898398 -17.62571903
X -21.65443279 54.16289531 -3.36623455
X -29.56886802 38.12648558 -31.09056477
X -6.40291260 29.01010860 -15.05416335
X -43.88621586 46.93933916 -30.10832176
X -40.86317060 67.13660170 -29.31367630
X -8.84860759 40.69802988 -57.03800188
X -23.16595542 -0.79467057 -36.04606669
X -47.26608320 5.44664128 -3.36621279
X -23.16595542 56.24332250 -15.05417551
X -35.97178063 5.93774830 -40.20693453
X -33.52608564 26.92967132 -25.94744799
X -17.69721518 28.51898814 -8.32174241
X -33.52608564 52.87711852 -0.79467809
X -39.92899824 50.79668795 3.36618767
X -21.65443279 23.07234606 -6.73243103
X -8.84860759 23.07235358 10.09862079
X -56.69204106 18.42035439 -14.25950415
X -35.97178063 14.25948734 -19.21502160
X -10.36013022 30.29589627 6.73240719
X -25.61165041 21.78656175 -20.99192638
X -25.61165041 10.89327999 -12.48259937
X -24.10012778 39.90340540 10.09861326
X -32.01456301 48.22512684 -8.32175121
X -56.69204106 45.35003244 -25.15280174
X -11.29430258 15.54526750 -14.25950287
X -10.36013022 46.93933837 -31.88522318
X -37.48330326 8.01818142 -38.61762653
X -43.88621586 33.47449470 -36.84073647
X -15.25152019 25.15276654 -33.47452239
X -38.41747561 35.25141373 2.57154015
X -22.58860515 21.78655166 -43.57315198
X -21.65443279 32.37631932 -14.25951039
X -12.80582520 13.46484446 6.73241471
X -8.84860759 43.26960524 -13.46486078
X -38.41747561 13.46483359 -17.62571230
X -29.56886802 42.28736094 -7.52709408
X -50.28912846 20.50079168 -3.36621952
X 1.51152263 22.27767965 -33.47452111
X -48.77760583 14.25949407 -4.16087120
X -6.40291260 72.58324634 -25.15281390
X -48.77760583 34.45675324 -10.89330095
X -6.40291260 54.95754492 -14.25952047
X -11.29430258 50.79668459 -4.16088753
X -37.48330326 43.26960939 -4.16088416
X -23.16595542 10.09862286 -18.42036527
X -34.46025800 36.53718380 -15.05416672
X -11.29430258 15.54526335 -23.56347949
X -29.56886802 42.28735422 -22.58124448
X -3.37986735 29.01009436 -46.93936557
X -9.78277995 17.62569727 -20.19727005
X -51.22330082 70.50281241 -28.51902334
X -18.27456545 31.88518877 -30.10831504
X -14.31734783 15.54525742 -36.84072846
X -38.41747561 63.77040443 -0.00002848
X -31.08039065 60.40419034 -8.32175665
X -26.54582277 36.53717965 -24.35814334
X -23.16595542 53.67177484 3.36618639
X -37.48330326 42.28735086 -30.10831969
X -28.05734540 31.88518461 -39.41229165
X -0.93417236 43.26959179 -43.57316157
X -27.12317304 19.70613535 -7.52708400
X -6.40291260 23.86698895 -32.67986735
X -35.97178063 11.68793968 -0.79465970
X -37.48330326 40.69804412 -25.15279966
X -22.58860515 52.87711852 -0.79467809
X -6.40291260 37.33184349 -3.36622704
X -44.82038822 22.27768301 -25.94744591
X -15.25152019 45.35002571 -40.20695214
X -10.36013022 10.09861614 -33.47451567
X -12.80582520 35.25141036 -4.95553505
X -16.76304282 29.80476493 -10.89329887
X -25.61165041 31.09053500 -28.51900573
X -17.69721518 39.41226397 -30.10831839
X -17.69721518 21.78656255 -19.21502496
X -27.12317304 23.86699903 -10.09864175
X -50.28912846 38.12648974 -21.78658815
X -6.40291260 37.33182589 -42.77850445
X -11.29430258 65.85083163 -11.68796945
X -13.73999756 40.69804828 -15.84882305
X -28.05734540 20.99190621 -23.37588944
X -34.46025800 47.43046971 -14.25951711
X -14.31734783 34.76027150 -39.41229294
X -46.33191084 28.51899149 -0.79466721
X -33.52608564 24.35811198 -33.66211451
X -16.76304282 33.96560766 -60.40420923
X -11.29430258 23.86699647 -15.84881553
X -15.25152019 20.99190878 -17.62571567
X -42.37469323 33.96562269 -26.74210560
X -55.18051843 65.05617450 -17.62573534
X -27.12317304 30.59941374 -23.56348621
X -38.41747561 57.03797131 -27.72436285
X -43.88621586 47.92158682 -28.51901325
X 0.00000000 6.73242223 3.36620735
X 11.87165285 40.69803740 -40.20695005
X -19.20873781 39.90339036 -23.56349036
X -31.08039065 25.15276911 -27.72434862
X -15.25152019 31.88518382 -41.18919307
X -25.61165041 52.87711852 -0.79467809
X -13.73999756 33.96562269 -26.74210560
X -29.56886802 51.59133835 -5.75019682
X -60.64925868 33.17096557 -32.67987150
X -23.16595542 40.20693038 -3.36622832
X -15.25152019 20.99189869 -40.20694126
X -39.92899824 41.49269037 -43.57316078
X -19.20873781 50.79666699 -43.57316494
X -34.46025800 44.85891869 -3.36623039
X -31.08039065 25.15276239 -42.77849901
X -16.76304282 47.43045548 -46.14471932
X -42.37469323 44.85890445 -35.25143261
X -19.20873781 20.68837708 -19.21502447
X -36.90595299 61.68996714 -10.89331311
X -12.80582520 2.57154430 -25.94743711
X -43.88621586 29.31363358 -28.51900494
X -13.73999756 49.01978317 -4.16088673
X -8.84860759 43.26960939 -4.16088416
X -13.73999756 27.23320639 -16.83106398
X -15.25152019 29.31364447 -4.16087792
X -16.76304282 27.23320639 -16.83106398
X -44.82038822 11.38440718 -4.16086992
X -21.65443279 24.05459115 -10.89329630
X -43.88621586 30.29588203 -25.15279501
X -28.05734540 36.04605502 -26.92969901
X -13.73999756 24.66165615 -4.16087585
X -15.25152019 49.51089612 -27.72435949
X -42.37469323 58.32375563 -13.46486750
X -16.76304282 5.44663792 -10.89328799
X -48.77760583 40.20691278 -42.77850573
X -7.33708496 18.42035439 -14.25950415
X -24.67747805 39.10873146 -33.47452862
X -15.25152019 53.67175724 -36.04609102
X -19.20873781 31.58166635 -10.89329967
X 3.95721762 29.80476829 -3.36622368
X -31.08039065 56.24331915 -22.58125071
X -51.22330082 26.92967884 -9.11639617
X -34.46025800 47.43047388 -4.95554049
X -17.69721518 48.71623979 -31.88522397
X -4.89138997 48.71624395 -22.58124736
X -15.25152019 29.31364783 3.36619727
X -30.50304038 17.62570143 -10.89329344
X -0.93417236 29.80476157 -18.42037407
X -29.56886802 20.50079583 5.93775710
X -27.12317304 34.76028574 -7.52709072
X -54.24634608 44.55538619 -6.73244062
X -40.86317060 52.08245803 -14.25951919
X -25.61165041 44.55537531 -31.09056765
X -28.63469567 32.67984174 -33.47452576
X -52.73482345 37.33183341 -25.94745264
X -11.29430258 48.22512684 -8.32175121
X -7.33708496 60.40419371 -0.79468145
X -35.03760827 35.74251659 -43.57315821
X -0.93417236 43.26959851 -28.51901118
X -59.13773605 17.62570478 -3.36621824
X -19.20873781 31.58165963 -25.94745006
X 5.46874024 18.42035439 -14.25950415
X -21.65443279 14.75061453 -10.89329215
X -15.25152019 46.93933916 -30.10832176
X -39.35164797 23.07233261 -36.84073183
X 0.00000000 26.92967547 -16.64347137
X -25.61165041 39.41227485 -5.75019138
X -4.89138997 39.41226317 -31.88521981
X 9.42595786 33.17096557 -32.67987150
X -8.84860759 8.01818557 -29.31364991
X -32.01456301 48.22511933 -25.15280302
X -44.82038822 57.52909258 -32.67988238
X -42.37469323 55.75219116 -32.67988158
X -46.33191084 35.25138861 -53.67178908
X -48.77760583 38.61762444 3.36619312
X -55.18051843 54.16289531 -3.36623455
X -29.56886802 46.44821118 -40.20695263
X -21.65443279 12.17905263 -24.35813245
X -33.52608564 28.51898062 -25.15279422
X 0.00000000 41.98381836 -33.47452991
X -7.33708496 45.35003244 -25.15280174
X -32.01456301 48.22513020 -0.79467601
X -23.16595542 71.29746954 -22.58125743
X -32.01456301 56.54684749 -28.51901711
X -34.46025800 65.05617450 -17.62573534
X -20.14291017 20.99189117 -57.03799308
X -28.63469567 32.67984846 -18.42037536
X -35.97178063 7.52707520 -0.00000336
X -31.08039065 38.61761436 -19.21503248
X -46.33191084 6.73240463 -36.04607006
X -40.86317060 20.99189869 -40.20694126
X -38.41747561 57.03797212 -25.94746144
X -0.93417236 40.69805084 -10.09864927
X -32.01456301 15.54526830 -12.48260145
X -23.16595542 45.35002828 -34.45677835
X -23.16595542 42.77848141 -14.25951503
X -48.77760583 52.08245466 -21.78659438
X 1.51152263 57.52909258 -32.67988238
X -16.76304282 58.32375306 -19.21504128
X -28.05734540 7.52706847 -15.05415376
X -32.01456301 70.01169196 -21.78660239
X -28.05734540 42.77847468 -29.31366543
X -0.93417236 36.53718380 -15.05416672
X -42.37469323 27.23319294 -46.93936477
X -8.84860759 23.07233182 -38.61763325
X -11.87165285 16.33991039 -40.20693918
X -28.05734540 45.35002828 -34.45677835
X -25.61165041 41.98382587 -16.64347809
X -47.26608320 47.43047308 -6.73244191
X -20.14291017 38.61760684 -36.04608430
X -3.37986735 44.06426572 -0.00001968
X -8.84860759 27.23321055 -7.52708736
X -27.12317304 48.22512348 -15.84882640
X -37.48330326 38.12649053 -20.00968673
X -2.44569499 49.51089276 -35.25143469
X -25.61165041 10.89329007 10.09862622
X -38.41747561 37.82296139 -15.84882176
X -26.54582277 23.07233519 -31.09055804
X -28.05734540 38.61761851 -9.91105586
X -24.67747805 29.80476493 -10.89329887
X -13.73999756 24.66164943 -19.21502625
X -32.01456301 46.63580251 -42.77850861
X -38.41747561 39.41227069 -15.05416800
X -23.16595542 27.72433180 -12.48260688
X -25.61165041 15.05415455 9.30396989
X -44.82038822 29.01011532 -0.00001296
X -15.25152019 58.81486601 -42.77851404
X -39.92899824 42.47493882 -40.20695086
X -39.35164797 40.69804077 -32.67987486
X -39.92899824 30.59941038 -31.09056141
X -17.69721518 35.25139613 -36.84073726
X -30.50304038 63.77039771 -15.05417888
X -19.20873781 61.68995707 -33.47453871
X -28.05734540 29.31364447 -4.16087792
X -63.09495366 16.33991039 -40.20693918
X -32.01456301 18.11682268 -15.84881296
X -40.86317060 40.20691950 -27.72435534
X -28.99151776 37.33184014 -10.89330224
X -44.82038822 30.59940782 -36.84073519
X -7.33708496 29.31362686 -43.57315533
X -7.91443523 59.60952986 -21.78659775
X -30.50304038 37.82295724 -25.15279838
X -33.52608564 41.00157326 -29.31366464
X -54.24634608 37.82295052 -40.20694878
X -23.16595542 11.68793968 -0.79465970
X -23.16595542 40.20691278 -42.77850573
X -17.69721518 2.57153343 -50.30556412
X -29.56886802 50.00201738 -32.67987902
X -6.40291260 54.95754076 -23.56349709
X -29.56886802 16.33991711 -25.15278878
X -14.31734783 30.59941374 -23.56348621
X -35.97178063 36.04605661 -23.37589617
X -24.10012778 22.27769310 -3.36622031
X -20.14291017 52.08244793 -36.84074478
X -19.20873781 34.76027150 -39.41229294
X -59.13773605 17.62569471 -25.94744383
X -16.76304282 21.48304013 -0.00000959
X -24.10012778 4.65198079 -16.83105389
X -34.46025800 9.60750912 3.36620607
X 3.02304526 25.94742287 -29.31365792
X -25.61165041 9.30396238 -31.88520637
X -4.89138997 48.71623979 -31.88522397
X -29.56886802 27.23321390 -0.00001216
X -41.44052087 35.25139949 -29.31366207
X -34.46025800 47.43047050 -12.48261569
X -47.26608320 5.44662783 -33.47451359
X -4.89138997 17.62570478 -3.36621824
X -42.37469323 44.85890781 -27.72435741
X -67.05217128 35.25139949 -29.31366207
X -32.01456301 35.74252411 -26.74210640
X -38.41747561 32.67984094 -35.25142717
X -31.08039065 41.18915787 -46.93937101
X -33.52608564 28.51896974 -49.51092124
X -47.26608320 12.17905679 -15.05415584
X 7.91443523 59.60952314 -36.84074815
X -32.01456301 38.92114943 -10.09864847
X -6.40291260 44.06424476 -46.93937229
X -16.76304282 27.23321055 -7.52708736
X -15.25152019 45.35001820 -57.03800396
X -3.37986735 33.17097565 -10.09864590
X -0.93417236 32.37631595 -21.78658558
X -31.08039065 49.51089691 -25.94745807
X -2.44569499 18.42035439 -14.25950415
X -7.33708496 25.15277326 -18.42037200
X -6.40291260 41.49269630 -30.29591180
X -59.13773605 10.89327584 -21.78657599
X -23.16595542 12.67017052 -36.84072718
X -28.05734540 25.15276990 -25.94744719
X -35.97178063 41.18917211 -15.05416879
X -33.52608564 39.41227742 -0.00001760
X -4.89138997 31.09054252 -11.68795392
X -37.48330326 40.69804749 -17.62572447
X -35.03760827 30.59941454 -21.78658479
X -15.25152019 56.24332922 -0.00002512
X -29.56886802 3.85731773 -36.04606877
X -38.41747561 6.73240799 -28.51899486
X -2.44569499 31.88520222 -0.00001424
X -23.16595542 20.99191293 -8.32173904
X -12.80582520 6.73241887 -4.16086784
X 1.51152263 19.70612447 -31.88521101
X -44.82038822 19.70612111 -39.41228621
X -21.65443279 29.80475821 -25.94744927
X -39.92899824 61.68995707 -33.47453871
X -33.52608564 39.41226653 -24.35814461
X -23.16595542 67.13660170 -29.31367630
X -35.97178063 10.09861614 -33.47451567
X -38.41747561 41.98382171 -25.94745471
X -15.25152019 34.45674315 -33.47452655
X -40.86317060 25.15276654 -33.47452239
X -29.56886802 62.48461003 -36.84074942
X -29.56886802 23.07233854 -23.56348285
X -52.73482345 41.49269374 -36.04608558
X -6.40291260 34.76027150 -39.41229294
X -6.40291260 26.43855758 -4.16087664
X -8.84860759 23.07233854 -23.56348285
X -41.44052087 40.39451162 -28.51900989
X -33.52608564 35.25139613 -36.84073726
X -20.72026044 39.41227405 -7.52709281
X -51.22330082 6.73241215 -19.21501824
X -27.12317304 35.74253755 3.36619439
X -3.37986735 48.22512012 -23.37590161
X -48.77760583 31.88518797 -31.88521646
X -23.16595542 12.67018062 -14.25950158
X -30.50304038 10.89326911 -36.84072639
X -28.05734540 26.13502171 -15.05416207
X -28.05734540 71.29746954 -22.58125743
X -32.01456301 30.59942206 -4.95553297
X -50.28912846 40.69805501 -0.79467265
X -15.25152019 49.51090779 -1.58933106
X -25.61165041 31.09052749 -45.35005755
X -3.95721762 25.64390124 -8.32174113
X -40.86317060 30.29588619 -15.84881840
X 3.02304526 21.78656175 -20.99192638
X -23.16595542 57.83262508 -29.31367215
X -10.36013022 7.52706847 -15.05415376
X -29.56886802 23.07234350 -12.48260481
X -32.01456301 45.65357166 -6.73244111
X -27.12317304 33.17097229 -17.62572110
X -6.40291260 41.49269374 -36.04608558
X -11.29430258 61.68997051 -3.36623792
X -8.84860759 54.16288443 -27.72436157
X -10.36013022 40.20691950 -27.72435534
X -28.05734540 30.29587531 -40.20694541
X -12.80582520 50.30554237 -46.14472060
X -36.90595299 19.70612526 -30.10830959
X -20.14291017 41.18916874 -22.58124399
X -25.61165041 65.35971037 -6.73244991
X 1.51152263 33.17096972 -23.37589488
X -19.20873781 8.81284943 -8.32173361
X -9.78277995 25.94742959 -14.25950751
X -35.97178063 60.40418955 -10.09865807
X -38.41747561 57.03797547 -18.42038624
X 15.82887046 41.98383181 -3.36622911
X -23.16595542 25.15277998 -3.36622159
X -30.50304038 41.98382923 -9.11640290
X -6.40291260 19.70613119 -16.83106062
X -23.16595542 34.45674236 -35.25142797
X -55.18051843 65.05617114 -25.15281055
X -29.56886802 69.21704571 -3.36624128
X 0.00000000 17.62569134 -33.47451903
X -4.89138997 63.77040107 -7.52710368
X -42.37469323 25.64390460 -0.79466593
X -50.28912846 33.96562605 -19.21503040
X -33.52608564 46.14469707 -2.38398403
X 1.51152263 50.79667787 -19.21503792
X -24.67747805 31.39406415 -32.67987071
X -52.73482345 26.43854333 -36.04607886
X -11.29430258 48.22512269 -17.62572782
X -10.36013022 20.99191630 -0.79466385
X -35.03760827 41.49269789 -26.74210896
X -22.58860515 41.98382844 -10.89330432
X -3.37986735 50.79668459 -4.16088753
X -29.56886802 39.10874491 -3.36622783
X -40.86317060 29.31364031 -13.46485454
X -46.33191084 20.19724573 -36.84073055
X -21.65443279 54.16288186 -33.47453535
X -2.44569499 14.25949071 -11.68794641
X -50.28912846 47.43046635 -21.78659231
X 1.51152263 50.79667451 -26.74211311
X 11.87165285 47.43046299 -29.31366750
X -34.46025800 16.33992384 -10.09863839
X -46.33191084 41.98382428 -20.19728093
X -32.01456301 33.17097229 -17.62572110
X -19.20873781 33.17096476 -34.45677292
X -7.91443523 37.82296475 -8.32174657
X -59.13773605 37.82296475 -8.32174657
X -16.18569255 50.79667451 -26.74211311
X -20.14291017 14.25948319 -28.51899822
X 3.02304526 52.87711179 -15.84882849
X -12.80582520 17.62570558 -1.58931682
X -14.31734783 50.79668459 -4.16088753
X -28.99151776 44.06425900 -15.05417008
X -8.84860759 39.10874491 -3.36622783
X -28.05734540 44.36778399 -28.51901167
X -35.97178063 25.15277326 -18.42037200
X -17.69721518 39.41226989 -16.83106942
X -13.73999756 23.07233519 -31.09055804
X -25.61165041 35.25141373 2.57154015
X -25.61165041 37.82296811 -0.79467136
X -46.33191084 52.87712187 6.73239711
X -23.16595542 10.09861535 -35.25141709
X -35.97178063 53.67176396 -20.99194062
X -37.48330326 58.32375979 -4.16089088
X 3.95721762 36.53719052 -0.00001631
X -21.65443279 60.89530330 -31.88522941
X -2.44569499 62.97573386 -36.04609517
X -23.16595542 37.02831099 -6.73243727
X -32.94873537 42.77847132 -36.84074063
X -20.14291017 18.42035439 -14.25950415
X -50.28912846 23.07233261 -36.84073183
X -25.61165041 36.84070958 -26.74210689
X -28.05734540 56.24331835 -24.35815213
X -20.72026044 24.35810941 -39.41228829
X -20.72026044 46.14468620 -26.74211104
X -29.56886802 27.23321806 9.30396445
X -20.72026044 41.98382428 -20.19728093
X -12.80582520 17.62569134 -33.47451903
X -19.20873781 54.95754492 -14.25952047
X 3.95721762 12.17906014 -7.52708064
X -25.61165041 2.57154015 -35.25141373
X -2.44569499 3.36619727 -29.31364783
X -17.69721518 48.71624730 -15.05417216
X -38.41747561 32.67983422 -50.30557757
X -41.44052087 36.84071631 -11.68795649
X -9.78277995 25.94742287 -29.31365792
X -4.89138997 10.89327247 -29.31365119
X -46.33191084 6.73240127 -43.57314526
X -46.33191084 48.71624315 -24.35814878
X -33.52608564 39.41226733 -22.58124320
X -39.92899824 38.92114607 -17.62572367
X -46.33191084 39.41226989 -16.83106942
X 1.51152263 39.90339868 -4.95553713
X -33.52608564 33.66208603 -39.41229244
X -43.88621586 42.77848220 -12.48261361
X -24.10012778 29.01010108 -31.88521517
X -28.05734540 42.77849228 10.09861198
X -21.65443279 8.01818557 -29.31364991
X -32.01456301 19.70613950 1.77689262
X -50.28912846 40.69805164 -8.32174785
X -16.18569255 22.27767886 -35.25142253
X -56.69204106 56.24332922 -0.00002512
X -27.12317304 33.17096476 -34.45677292
X -40.86317060 53.67175724 -36.04609102
X -26.54582277 44.85891533 -10.89330560
X -50.28912846 47.43046971 -14.25951711
X -29.56886802 38.12649646 -6.73243776
X -28.05734540 58.81487273 -27.72436364
X -23.16595542 23.56346317 -20.99192717
X -67.05217128 28.51898062 -25.15279422
X -28.05734540 25.15276574 -35.25142381
X -12.80582520 21.78656255 -19.21502496
X -30.50304038 37.82295803 -23.37589696
X -47.84343347 44.06425900 -15.05417008
X -13.73999756 23.07233854 -23.56348285
X -16.76304282 31.39407423 -10.09864511
X -33.52608564 30.10830080 -0.00001345
X -23.16595542 11.68794304 6.73241551
X -8.84860759 55.75220125 -10.09865599
X -38.41747561 57.03796875 -33.47453663
X -9.78277995 13.46481934 -49.51091452
X -28.05734540 19.40259276 -33.47451983
X -39.92899824 61.68996042 -25.94746351
X -17.69721518 43.57313853 -8.32174913
X -23.16595542 36.04604158 -57.03799980
X -15.25152019 58.81487273 -27.72436364
X -51.22330082 52.87711436 -10.09865470
X -31.08039065 52.08244793 -36.84074478
X -7.33708496 38.61761099 -26.74210768
X -20.72026044 17.62569806 -18.42036863
X -25.61165041 33.66209275 -24.35814205
X -32.01456301 52.38599388 -3.36623376
X -19.20873781 44.06426572 -0.00001968
X -39.92899824 26.43855342 -13.46485326
X -46.33191084 21.78655839 -28.51900158
X -17.69721518 28.51898142 -23.37589280
X -20.14291017 60.40419371 -0.79468145
X -23.16595542 30.29589291 -0.79466800
X -26.54582277 29.80476078 -20.19727549
X 1.51152263 19.70613871 -0.00000880
X -13.73999756 40.69804749 -17.62572447
X -16.76304282 9.60750240 -11.68794432
X -25.61165041 13.46482606 -34.45676411
X -32.01456301 30.59940366 -46.14471180
X -43.88621586 38.61761436 -19.21503248
X 7.91443523 32.67983758 -42.77850237
X -28.63469567 32.67985182 -10.89330016
X -23.16595542 31.88518046 -48.71626827
X -25.61165041 46.14467452 -52.87713948
X -24.10012778 37.33182925 -35.25142925
X -0.93417236 16.33991711 -25.15278878
X -26.54582277 47.43048060 10.09860991
X -48.77760583 38.61761020 -28.51900910
X -47.26608320 44.85891117 -20.19728221
X -14.31734783 41.49270382 -13.46485998
X -56.69204106 14.25948655 -20.99192302
X -0.93417236 32.37631260 -29.31366078
X -38.41747561 55.44866538 -20.99194141
X -36.90595299 33.17097981 -0.79466929
X 7.91443523 21.78656175 -20.99192638
X -34.46025800 25.64390124 -8.32174113
X -36.90595299 35.74253083 -11.68795600
X -32.01456301 53.36822474 -39.41230124
X -23.16595542 42.77847053 -38.61764205
X -38.41747561 39.41224893 -63.77042203
X -20.14291017 31.88518125 -46.93936685
X -40.86317060 45.35004667 6.73240047
X -33.52608564 31.09052413 -52.87713276
X -43.88621586 27.72432013 -38.61763532
X -11.29430258 30.59941869 -12.48260817
X -10.36013022 14.25948655 -20.99192302
X -52.73482345 19.70611775 -46.93936141
X -37.48330326 25.64388700 -40.20694334
X -30.50304038 43.57312766 -32.67987614
X -2.44569499 7.52706175 -30.10830415
X -38.41747561 6.73241887 -4.16086784
X -25.61165041 6.73241135 -20.99191966
X 0.00000000 46.14467869 -43.57316285
X -34.46025800 47.43046635 -21.78659231
X -46.33191084 37.82295387 -32.67987358
X -48.77760583 3.36619727 -29.31364783
X -25.61165041 39.41225982 -39.41229501
X -12.80582520 52.87711515 -8.32175328
X 0.00000000 10.89328255 -6.73242559
X -20.14291017 52.08245130 -29.31366958
X -12.80582520 43.57311677 -57.03800316
X -38.41747561 48.71623307 -46.93937437
X -28.05734540 34.45675067 -16.64347472
X -44.82038822 39.90339531 -12.48261232
X -19.20873781 -6.24130177 -10.09862831
X -25.61165041 51.89486254 -20.99193982
X -19.20873781 26.43856846 20.19725037
X -39.35164797 23.07233598 -29.31365662
X -37.48330326 31.39407839 -0.79466850
X -50.28912846 12.17905599 -16.83105726
X 0.00000000 32.67984094 -35.25142717
X -23.16595542 23.56345981 -28.51900238
X -21.65443279 18.91147070 -30.29590171
X -42.37469323 16.33993135 6.73241343
X -19.20873781 50.79666284 -52.87714156
X -43.30886559 41.98382171 -25.94745471
X -35.03760827 54.95754235 -20.00969425
X -0.93417236 43.26960603 -11.68795936
X -41.44052087 26.92966716 -35.25142460
X -22.58860515 44.55538283 -14.25951582
X -39.92899824 61.68997051 -3.36623792
X -52.73482345 44.06426236 -7.52709488
X -24.10012778 15.54527087 -6.73242767
X -27.12317304 37.33182925 -35.25142925
X -43.88621586 49.51090363 -10.89330767
X 3.95721762 23.07234606 -6.73243103
X -35.97178063 34.45675739 -1.58932433
X -8.84860759 33.96562862 -13.46485663
X -29.56886802 62.48463099 10.09860318
X -59.13773605 41.98381836 -33.47452991
X -19.20873781 49.81442862 -24.35814926
X -13.73999756 18.91146735 -37.82297691
X -0.93417236 23.07232846 -46.14470845
X -56.69204106 34.45674315 -33.47452655
X -25.61165041 54.46642781 -0.00002432
X -19.20873781 8.81284271 -23.37588400
X -25.61165041 32.67984174 -33.47452576
X -28.05734540 40.20692702 -10.89330351
X -52.73482345 26.43855342 -13.46485326
X -10.36013022 34.45675324 -10.89330095
X -27.12317304 34.76027150 -39.41229294
X 15.82887046 48.71625067 -7.52709696
X -48.77760583 20.99190621 -23.37588944
X -15.25152019 29.31363438 -26.74210352
X -33.52608564 37.82295052 -40.20694878
X -2.44569499 49.51090700 -3.36623248
X -17.69721518 21.78657263 3.36620063
X -4.89138997 20.19725581 -14.25950495
X -31.08039065 22.58122223 -7.52708529
X -7.91443523 59.60952650 -29.31367295
X -18.27456545 29.31363695 -20.99192975
X -19.20873781 46.63579914 -50.30558380
X -34.46025800 31.39406078 -40.20694590
X -50.28912846 23.07232510 -53.67178364
X -32.01456301 2.08043056 -4.16086577
X -17.69721518 61.19885004 3.36618303
X -39.35164797 16.33992047 -17.62571358
X -55.18051843 16.33991374 -32.67986398
X -28.63469567 32.67985518 -3.36622496
X -28.05734540 36.04605997 -15.84882097
X -11.29430258 38.92114607 -17.62572367
X -8.84860759 25.64389709 -17.62571774
X -35.97178063 14.25948655 -20.99192302
X -24.10012778 59.11841612 -0.00002640
X -67.05217128 41.98382844 -10.89330432
X -17.69721518 35.25139949 -29.31366207
X -32.01456301 53.36823482 -16.83107566
X -6.40291260 33.17096892 -25.15279631
X -7.33708496 49.51090028 -18.42038287
X -47.26608320 23.07234606 -6.73243103
X -51.22330082 43.57312013 -49.51092796
X -54.24634608 21.78655166 -43.57315198
X 1.51152263 30.59940030 -53.67178700
X -48.77760583 52.08245130 -29.31366958
X -40.86317060 36.04606254 -10.09864719
X -35.97178063 38.61762860 12.67016973
X -25.61165041 28.51899901 16.03638461
X -17.69721518 36.84070207 -43.57315870
X -48.77760583 27.72432093 -36.84073390
X -6.40291260 22.27767965 -33.47452111
X -2.44569499 45.35003244 -25.15280174
X -32.01456301 63.27926300 -40.20696015
X -41.44052087 33.66209612 -16.83106685
X -39.92899824 8.81284527 -17.62571023
X -2.44569499 34.45675324 -10.89330095
X -31.08039065 18.42035439 -14.25950415
X -19.20873781 7.22354270 -3.36621359
X -7.33708496 60.40419034 -8.32175665
X -7.33708496 31.88520222 -0.00001424
X -34.46025800 14.75060444 -33.47451775
X -16.76304282 43.26960187 -20.99193598
X -25.61165041 18.60793979 -30.10830910
X -38.41747561 50.30554237 -46.14472060
X -59.13773605 28.51897726 -32.67986942
X -42.37469323 20.50079168 -3.36621952
X -6.40291260 35.74252411 -26.74210640
X -24.10012778 24.84924412 -14.25950702
X -22.23178306 39.90339788 -6.73243855
X -12.80582520 13.46482349 -40.20693790
X -27.12317304 52.38599388 -3.36623376
X -29.56886802 35.55493535 -18.42037664
X -29.56886802 46.44821454 -32.67987743
X -25.61165041 55.44865451 -45.35006843
X -44.82038822 39.90339116 -21.78658894
X -14.31734783 39.90339868 -4.95553713
X -23.16595542 14.25947983 -36.04607341
X -26.54582277 38.12649310 -14.25951295
X -15.25152019 20.99190621 -23.37588944
X -28.05734540 60.40419707 6.73239376
X -29.56886802 47.43047723 2.57153471
X -42.37469323 9.60750576 -4.16086913
X -17.69721518 35.25139197 -46.14471389
X -48.77760583 67.13659834 -36.84075150
X -24.10012778 42.47494891 -17.62572526
X -21.65443279 49.01977229 -28.51901374
X -38.41747561 48.71623979 -31.88522397
X -30.50304038 37.82296139 -15.84882176
X -4.89138997 24.35812030 -15.05416128
X -32.01456301 54.95754571 -12.48261905
X 9.42595786 39.90339116 -21.78658894
X -8.84860759 12.17905263 -24.35813245
X -22.58860515 21.78656511 -13.46485118
X -31.08039065 29.31363774 -19.21502833
X -11.29430258 37.33182589 -42.77850445
X -20.72026044 37.82295803 -23.37589696
X -35.97178063 25.15278078 -1.58932017
X -41.44052087 28.51898734 -10.09864383
X -41.44052087 52.87711515 -8.32175328
X -35.03760827 19.70612447 -31.88521101
X -52.73482345 48.22511260 -40.20695343
X -35.39443036 35.25139949 -29.31366207
X -19.20873781 11.38440381 -11.68794512
X -38.41747561 2.57154094 -33.47451231
X -48.77760583 41.18917547 -7.52709359
X -33.52608564 39.41228157 9.30395902
X -43.88621586 31.88519549 -15.05416463
X -16.76304282 47.43046220 -31.09056892
X -21.65443279 29.80474733 -50.30557629
X -32.01456301 44.06424396 -48.71627371
X -12.80582520 67.93126475 -10.09866142
X -17.69721518 6.73240127 -43.57314526
X -8.84860759 36.53716955 -46.93936893
X -16.76304282 25.64389373 -25.15279294
X -24.10012778 23.86699982 -8.32174033
X -7.33708496 56.24332922 -0.00002512
X -32.01456301 28.02786688 -3.36622288
X -8.84860759 9.60750912 3.36620607
X -30.50304038 17.62569471 -25.94744383
X -20.72026044 39.41227069 -15.05416800
X -9.78277995 52.87712187 6.73239711
X -38.41747561 44.55537274 -36.84074142
X -25.61165041 50.30556076 -4.95554178
X -36.90595299 35.74253419 -4.16088080
X -21.65443279 53.18063341 -36.84074527
X -11.29430258 44.06424812 -39.41229709
X -32.01456301 30.59940030 -53.67178700
X -20.72026044 24.35811614 -24.35813789
X -25.61165041 39.41225645 -46.93937022
X -31.08039065 10.09861198 -42.77849228
X -36.90595299 54.95753483 -36.84074607
X -23.16595542 31.88519964 -5.75018801
X -39.92899824 28.02786351 -10.89329808
X 11.87165285 27.23320639 -16.83106398
X -2.44569499 27.72432765 -21.78658351
X -33.52608564 9.30396574 -24.35813117
X 7.91443523 17.62570478 -3.36621824
X -22.58860515 46.14469965 3.36618975
X -38.41747561 28.51898814 -8.32174241
X -35.97178063 23.56346653 -13.46485198
X -2.44569499 7.52707520 -0.00000336
X -29.56886802 13.76836351 -20.00967585
X -32.01456301 7.22353597 -18.42036399
X -4.89138997 48.71624730 -15.05417216
X -19.20873781 76.74411754 -10.89331984
X -13.73999756 40.69804077 -32.67987486
X -23.16595542 27.72434189 10.09861870
X -30.50304038 57.03797884 -10.89331103
X -44.82038822 50.79668043 -13.46486414
X -27.12317304 52.38598717 -18.42038416
X -3.37986735 42.47493882 -40.20695086
X -28.05734540 56.24330826 -46.93937773
X -24.67747805 29.80475741 -27.72435069
X -12.80582520 31.09053916 -19.21502912
X -2.44569499 34.45675660 -3.36622575
X -34.46025800 33.96563614 3.36619520
X 5.46874024 42.77848477 -6.73243983
X -32.01456301 30.59941118 -29.31365999
X -6.40291260 -2.08044737 -33.47451022
X -35.03760827 30.59941790 -14.25950959
X -46.33191084 41.98383596 5.93774751
X -29.56886802 -2.87510786 -46.93935133
X -34.46025800 18.91148573 3.36620191
X -20.14291017 46.93934925 -7.52709616
X -43.88621586 25.15277663 -10.89329679
X -12.80582520 26.92968219 -1.58932097
X -34.46025800 55.75219452 -25.15280639
X -27.12317304 37.33184093 -9.11640081
X -19.20873781 7.22353934 -10.89328879
X -8.84860759 28.21545900 -4.16087743
X 3.02304526 32.67984510 -25.94745055
X -42.37469323 23.07233519 -31.09055804
X -13.73999756 23.07233261 -36.84073183
X -9.78277995 35.25139613 -36.84073726
X -10.36013022 46.93933501 -39.41229838
X 3.02304526 21.78655166 -43.57315198
X -32.01456301 24.84923740 -29.31365743
X -17.69721518 21.78656590 -11.68794976
X 11.87165285 54.16288858 -18.42038495
X -8.84860759 31.39407423 -10.09864511
X -32.01456301 33.17096220 -40.20694670
X -21.65443279 65.05617450 -17.62573534
X -27.12317304 30.59941118 -29.31365999
X -11.29430258 4.65197407 -31.88520429
X -25.61165041 48.71622555 -63.77042619
X -17.69721518 35.25140701 -12.48261025
X -32.01456301 39.90340203 2.57153807
X -27.12317304 33.17096141 -41.98384812
X -38.41747561 10.89328255 -6.73242559
X -15.25152019 11.68792959 -23.37588528
X -47.26608320 65.05617787 -10.09866014
X 1.51152263 29.01010524 -22.58123856
X -25.61165041 41.98382923 -9.11640290
X 5.46874024 29.31364031 -13.46485454
X -52.73482345 12.97370976 -18.42036656
X -3.95721762 25.64390797 6.73240928
X -48.77760583 42.77848141 -14.25951503
X -29.56886802 18.91147486 -20.99192510
X 3.95721762 44.85890445 -35.25143261
X -13.73999756 36.53719052 -0.00001631
X -9.78277995 35.25140285 -21.78658687
X -35.97178063 38.61760605 -37.82298572
X -20.14291017 37.02830427 -21.78658766
X -27.12317304 42.47494554 -25.15280046
X -42.37469323 33.96562941 -11.68795520
X -25.61165041 35.25139869 -31.09056348
X -38.41747561 9.30396317 -30.10830495
X -7.33708496 49.51090779 -1.58933106
X -21.65443279 39.10873819 -18.42037823
X -35.97178063 31.88517709 -56.24334347
X -27.12317304 28.02786015 -18.42037328
X -39.92899824 37.33182253 -50.30557964
X -9.78277995 46.14468620 -26.74211104
X -15.25152019 38.61762188 -2.38398066
X -31.08039065 18.42035776 -6.73242895
X -35.03760827 48.22512684 -8.32175121
X -21.65443279 69.21703899 -18.42039167
X -56.69204106 38.61760348 -43.57315949
X -35.97178063 11.68792959 -23.37588528
X -44.82038822 23.86699231 -25.15279215
X 1.51152263 35.74253755 3.36619439
X -48.77760583 49.51089948 -20.19728429
X -29.56886802 8.01817470 -53.67177692
X -35.97178063 38.61760941 -30.29591051
X -13.73999756 18.91147070 -30.29590171
X -31.08039065 27.72432013 -38.61763532
X -30.50304038 41.98381084 -50.30558173
X -2.44569499 34.45675404 -9.11639953
X 9.42595786 44.06426236 -7.52709488
X -29.56886802 18.91148573 3.36620191
X -54.24634608 41.98382171 -25.94745471
X -43.88621586 10.09861198 -42.77849228
X -35.97178063 36.04606254 -10.09864719
X -31.08039065 27.72431341 -53.67178572
X -18.27456545 27.72433437 -6.73243311
X -25.61165041 39.41227069 -15.05416800
X -21.65443279 39.10873146 -33.47452862
X -25.61165041 55.44865114 -52.87714363
X 0.00000000 37.82297148 6.73240383
X -43.88621586 49.51090700 -3.36623248
X -12.80582520 41.98382923 -9.11640290
X -33.52608564 52.87710763 -25.15280510
X -24.67747805 33.96562605 -19.21503040
X 1.51152263 33.17097565 -10.09864590
X -34.46025800 38.12648974 -21.78658815
X -13.73999756 20.50077823 -33.47452032
X -50.28912846 43.26960524 -13.46486078
X -19.20873781 -6.24130849 -25.15277870
X -0.00000000 -0.00001345 -30.10830080
X -7.33708496 16.83103085 -46.93936012
X -17.69721518 25.94742702 -20.00968130
X -29.56886802 50.00201995 -26.92970523
X -6.40291260 46.63581003 -25.94745679
X -34.46025800 39.10874491 -3.36622783
X -19.20873781 59.11840267 -30.10832720
X -30.50304038 37.82295387 -32.67987358
X -35.97178063 53.67176812 -11.68796400
X -33.52608564 28.51898398 -17.62571903
X -19.20873781 64.26150393 -53.67180204
X -23.16595542 52.08246138 -6.73244399
X -32.01456301 49.81443199 -16.83107406
X -15.25152019 36.04606669 -0.79467057
X -7.33708496 53.67176476 -19.21503920
X -19.20873781 39.90340540 10.09861326
X -38.41747561 31.09053580 -26.74210431
X -29.56886802 32.37630844 -38.61763740
X -30.50304038 36.84070207 -43.57315870
X -31.08039065 46.93934253 -22.58124656
X -24.10012778 23.86699566 -17.62571695
X -22.23178306 30.59941454 -21.78658479
X -27.12317304 45.65356158 -29.31366672
X -47.84343347 34.76027902 -22.58124112
X -20.72026044 17.62568719 -42.77849565
X -2.44569499 56.24332922 -0.00002512
X -24.10012778 33.17097565 -10.09864590
X -27.12317304 53.36822810 -31.88522605
X -21.65443279 62.48461754 -20.00969761
X -11.29430258 53.36822810 -31.88522605
X -32.01456301 45.65355742 -38.61764333
X -11.29430258 24.84924412 -14.25950702
X -6.40291260 30.59940702 -38.61763660
X -24.67747805 58.32376315 3.36618432
X -41.44052087 30.10829071 -22.58123905
X -33.52608564 35.25140205 -23.56348829
X -11.29430258 33.17096220 -40.20694670
X -22.58860515 52.87711179 -15.84882849
X -28.05734540 36.04606334 -8.32174577
X -46.33191084 39.41225645 -46.93937022
X -41.44052087 30.10828735 -30.10831424
X -19.20873781 64.26151065 -38.61765164
X -15.25152019 30.29588540 -17.62571982
X -8.84860759 1.28576671 -25.15278206
X -33.52608564 43.57313517 -15.84882433
X -22.23178306 30.59942126 -6.73243439
X -19.20873781 11.38438958 -43.57314733
X -55.18051843 58.32374891 -28.51901790
X -12.80582520 50.30555325 -21.78659359
X -10.36013022 49.51088604 -50.30558509
X -43.88621586 34.45675324 -10.89330095
X -42.37469323 33.96562190 -28.51900702
X -63.09495366 33.96562862 -13.46485663
X -17.69721518 51.28779754 -27.72436028
X -19.20873781 76.74411418 -18.42039504
X -24.10012778 53.36823482 -16.83107566
X -41.44052087 30.10830080 -0.00001345
X -20.72026044 44.55537611 -29.31366622
X -3.37986735 41.49270125 -19.21503377
X -13.73999756 32.37631516 -23.56348700
X -11.29430258 37.33183261 -27.72435405
X -38.41747561 17.62570222 -9.11639202
X -27.12317304 29.01010187 -30.10831375
X 5.46874024 38.61762108 -4.16088208
X -12.80582520 52.87710842 -23.37590368
X -36.90595299 39.90339452 -14.25951375
X 15.82887046 35.25140285 -21.78658687
X -16.18569255 35.74253004 -13.46485742
X -33.52608564 41.98382508 -18.42037952
X -19.20873781 48.22512012 -23.37590161
X 0.00000000 17.62570478 -3.36621824
X -25.61165041 5.14309533 -36.84072382
X -25.61165041 6.73241551 -11.68794304
X -41.44052087 46.14469628 -4.16088544
X -10.36013022 16.83104509 -15.05415792
X -38.41747561 26.92967884 -9.11639617
X -32.01456301 22.27769310 -3.36622031
X -17.69721518 28.51898477 -15.84881760
X -16.76304282 25.64389709 -17.62571774
X -21.65443279 51.59132748 -30.10832384
X -16.76304282 36.53718044 -22.58124191
X -59.13773605 37.82296811 -0.79467136
X -15.25152019 30.29587867 -32.67987022
X -23.16595542 16.83103422 -39.41228493
X -25.61165041 24.35811949 -16.83106269
X -21.65443279 3.85731438 -43.57314397
X -19.20873781 41.49270045 -20.99193518
X -2.44569499 25.15276574 -35.25142381
X -43.30886559 28.51897390 -40.20694463
X -11.87165285 36.53718716 -7.52709152
X -6.40291260 22.27768301 -25.94744591
X -7.33708496 29.31363438 -26.74210352
X -27.12317304 23.86700319 -0.79466513
X -31.08039065 45.35002571 -40.20695214
X -36.90595299 39.90339116 -21.78658894
X -31.08039065 49.51090443 -9.11640625
X -25.61165041 31.09055676 20.19724829
X -28.05734540 18.42036527 10.09862286
X -37.48330326 25.64389709 -17.62571774
X -27.12317304 54.95754235 -20.00969425
X -24.67747805 58.32375643 -11.68796608
X -52.73482345 37.33184014 -10.89330224
X -14.31734783 54.95754492 -14.25952047
X -37.48330326 18.91147150 -28.51900029
X -35.97178063 51.10020285 -32.67987951
X -35.97178063 41.18917547 -7.52709359
X -33.52608564 2.57154687 -20.19726332
X -24.10012778 48.22512348 -15.84882640
X -30.50304038 21.78656590 -11.68794976
X -32.94873537 41.18916538 -30.10831919
X -50.28912846 25.64390045 -10.09864255
X -35.97178063 10.09862286 -18.42036527
X -10.36013022 49.51089691 -25.94745807
X -55.18051843 27.23319630 -39.41228958
X -42.37469323 47.43048060 10.09860991
X -35.97178063 46.93935261 -0.00002096
X -13.73999756 29.80476157 -18.42037407
X -19.20873781 28.02785679 -25.94744848
X -38.41747561 6.73241135 -20.99191966
X -21.65443279 42.28735679 -16.83107070
X -6.40291260 45.65356078 -31.09056813
X -7.33708496 18.42034431 -36.84072975
X -14.31734783 34.76027822 -24.35814254
X -24.10012778 4.65197743 -24.35812909
X -30.50304038 46.14468541 -28.51901246
X -28.05734540 22.58122223 -7.52708529
X -31.08039065 41.18916538 -30.10831919
X 3.95721762 33.96562862 -13.46485663
X -4.89138997 44.55537274 -36.84074142
X -35.97178063 62.97573386 -36.04609517
X -33.52608564 48.71624395 -22.58124736
X -21.65443279 43.26958427 -60.40421339
X -40.86317060 40.20690942 -50.30558093
X -15.25152019 31.88519628 -13.27726322
X -32.01456301 8.81284191 -25.15278543
X -16.76304282 65.05617114 -25.15281055
X -24.10012778 26.43855422 -11.68795184
X -12.80582520 61.19884253 -13.46486878
X -21.65443279 43.26959515 -36.04608637
X -47.84343347 15.54526335 -23.56347949
X -32.94873537 20.99191214 -10.09864046
X -23.16595542 34.45673900 -42.77850317
X 5.46874024 29.31363695 -20.99192975
X -19.20873781 28.02786688 -3.36622288
X -33.52608564 37.82295724 -25.15279838
X -40.86317060 36.04605245 -32.67987278
X -32.01456301 59.11840267 -30.10832720
X -48.77760583 23.56347068 -4.16087536
X -6.40291260 57.52910267 -10.09865679
X -3.37986735 39.90338779 -29.31366415
X -12.80582520 59.60953322 -14.25952254
X -38.41747561 24.35811949 -16.83106269
X -14.31734783 35.74253419 -4.16088080
X -25.61165041 33.66210027 -7.52709023
X -17.69721518 61.19883996 -19.21504257
X -13.73999756 42.28735422 -22.58124448
X -35.97178063 49.51090363 -10.89330767
X -39.92899824 59.11841612 -0.00002640
X -20.72026044 57.03797884 -10.89331103
X -16.18569255 44.06425228 -30.10832048
X -24.67747805 38.12649310 -14.25951295
X -15.25152019 3.36620400 -14.25949743
X -32.01456301 44.06425228 -30.10832048
X -28.05734540 34.45676411 13.46482606
X -35.97178063 53.67176061 -28.51901582
X -27.12317304 48.22512684 -8.32175121
X -0.93417236 50.00201402 -40.20695421
X -11.29430258 4.65197071 -39.41227949
X -23.16595542 33.47449470 -36.84073647
X -7.33708496 36.04606334 -8.32174577
X -33.52608564 28.51897726 -32.67986942
X -29.56886802 43.26958427 -60.40421339
X -31.08039065 38.61761020 -28.51900910
X -39.92899824 8.81283519 -40.20693582
X -44.82038822 50.79667708 -20.99193934
X -33.52608564 10.89327584 -21.78657599
X -18.27456545 42.77847132 -36.84074063
X -43.88621586 52.08245130 -29.31366958
X -4.89138997 41.98382844 -10.89330432
X -12.80582520 15.05414704 -7.52708192
X -40.86317060 60.40418955 -10.09865807
X -14.31734783 50.79667035 -36.04608974
X -23.16595542 33.47449807 -29.31366127
X -37.48330326 38.12648974 -21.78658815
X -21.65443279 25.64390460 -0.79466593
X -23.16595542 45.35002155 -49.51092876
X -43.88621586 27.72432686 -23.56348492
X -43.30886559 21.78655503 -36.04607678
X -34.46025800 36.53717707 -30.10831711
X -34.46025800 40.69804412 -25.15279966
X -33.52608564 36.84070207 -43.57315870
X -4.89138997 36.84070542 -36.04608351
X -0.93417236 51.59133083 -22.58124864
X -4.89138997 48.71623307 -46.93937437
X -43.30886559 24.35811693 -22.58123647
X -29.56886802 18.91147901 -11.68794848
X -35.97178063 16.83103422 -39.41228493
X -51.22330082 46.14468204 -36.04608766
X -4.89138997 57.03797884 -10.89331103
X -48.77760583 41.18916874 -22.58124399
X -39.92899824 30.59940702 -38.61763660
X -39.92899824 34.76027486 -31.88521774
X -2.44569499 20.99191630 -0.79466385
X -32.01456301 2.08042720 -11.68794096
X -19.20873781 33.17098060 0.98223213
X -7.91443523 28.51898734 -10.09864383
X -2.44569499 40.20690942 -50.30558093
X -11.29430258 41.49270461 -11.68795856
X -39.92899824 38.92113935 -32.67987407
X 11.87165285 54.16289531 -3.36623455
X -29.56886802 51.59133420 -15.05417344
X -29.56886802 23.07234013 -20.00968000
X -21.65443279 5.44663792 -10.89328799
X -25.61165041 39.41226733 -22.58124320
X -29.56886802 28.21545900 -4.16087743
X -24.10012778 37.33184349 -3.36622704
X -12.80582520 16.03639548 -4.16087200
X -48.77760583 49.51090028 -18.42038287
X -21.65443279 49.01977981 -11.68796193
X -17.69721518 63.77039098 -30.10832928
X -29.56886802 55.75220540 -0.79467937
X -35.97178063 56.24332171 -16.83107694
X -15.25152019 26.13501835 -22.58123727
X -20.72026044 39.41226653 -24.35814461
X -32.01456301 33.17097644 -8.32174448
X -14.31734783 23.86698895 -32.67986735
X -52.73482345 26.43855758 -4.16087664
X -44.82038822 34.76028159 -16.83106733
X -18.27456545 31.88519885 -7.52708944
X -23.16595542 22.58122560 -0.00001008
X -38.41747561 24.35811278 -31.88521309
X -32.01456301 11.38439966 -20.99192174
X -33.52608564 37.82295644 -26.92969980
X -47.84343347 37.33183004 -33.47452783
X -29.56886802 59.91306237 -18.42038752
X -24.67747805 50.00201402 -40.20695421
X -21.65443279 8.01819567 -6.73242431
X -29.56886802 14.75061789 -3.36621695
X -34.46025800 29.80476236 -16.64347265
X -23.16595542 27.72433437 -6.73243311
X -27.12317304 38.92114943 -10.09864847
X -16.76304282 32.37631675 -20.00968416
X -27.12317304 61.68996379 -18.42038831
X -17.69721518 32.67984766 -20.19727677
X -12.80582520 13.46483438 -15.84881088
X -23.16595542 45.35003323 -23.37590032
X -15.25152019 25.15277326 -18.42037200
X -30.50304038 36.84070878 -28.51900830
X -48.77760583 29.31363358 -28.51900494
X -31.08039065 53.67177484 3.36618639
X -52.73482345 15.54526414 -21.78657807
X -12.80582520 10.89326911 -36.84072639
X -44.82038822 8.81284271 -23.37588400
X -32.01456301 61.68996714 -10.89331311
X -22.23178306 39.90338779 -29.31366415
X -51.22330082 26.92968219 -1.58932097
X -13.73999756 31.39406830 -23.37589409
X -41.44052087 26.92967388 -20.19727421
X -27.12317304 50.79668459 -4.16088753
X -48.77760583 36.04605166 -34.45677420
X -32.01456301 64.26150730 -46.14472684
X -38.41747561 41.98382092 -27.72435613
X -39.92899824 53.36823146 -24.35815085
X -27.12317304 39.90339116 -21.78658894
X -25.61165041 61.19884331 -11.68796737
X -38.41747561 39.41225902 -41.18919643
X -32.01456301 26.43854749 -26.74210224
X -17.69721518 25.94741951 -36.84073311
X -63.09495366 27.23319967 -31.88521437
X -11.29430258 29.01011197 -7.52708816
X -16.76304282 40.69805164 -8.32174785
X -44.82038822 72.58324970 -17.62573871
X -7.91443523 52.87711100 -17.62572991
X -18.27456545 49.51089355 -33.47453327
X -35.97178063 64.56505067 -18.42038959
X -11.29430258 17.13457423 -19.21502288
X -16.18569255 46.63581339 -18.42038159
X -2.44569499 20.99190206 -32.67986606
X -3.95721762 29.80475485 -33.47452447
X -43.30886559 46.14468541 -28.51901246
X -50.28912846 27.23320303 -24.35813918
X -6.40291260 34.76028159 -16.83106733
X -23.16595542 5.93775838 -17.62570894
X -44.82038822 54.95754076 -23.56349709
X -15.25152019 34.45674908 -20.19727757
X -13.73999756 8.01818142 -38.61762653
X -3.37986735 48.22513020 -0.79467601
X -11.29430258 50.79667035 -36.04608974
X -52.73482345 22.27769310 -3.36622031
X -52.73482345 44.06425564 -22.58124527
X -26.54582277 29.80476157 -18.42037407
X -2.44569499 46.93934174 -24.35814798
X -30.50304038 10.89327247 -29.31365119
X -2.44569499 56.24332250 -15.05417551
X -11.29430258 12.97370639 -25.94744175
X -28.63469567 25.94742623 -21.78658271
X -37.48330326 43.26959851 -28.51901118
X -46.33191084 17.62570143 -10.89329344
X 11.87165285 33.96562190 -28.51900702
X -16.18569255 26.43853998 -43.57315406
X -19.20873781 61.68996379 -18.42038831
X -6.40291260 33.17097644 -8.32174448
X 11.87165285 23.07233598 -29.31365662
X -16.76304282 51.59133756 -7.52709823
X 7.91443523 17.62569806 -18.42036863
X -44.82038822 33.17097309 -15.84881968
X -42.37469323 1.28577008 -17.62570686
X -25.61165041 40.39450490 -43.57316029
X -4.89138997 41.98383260 -1.58932769
X -37.48330326 51.59133756 -7.52709823
X -39.92899824 39.90337692 -53.67179116
X -33.52608564 15.05413695 -30.10830752
X -21.65443279 62.48461003 -36.84074942
X -23.16595542 60.40418283 -25.15280846
X -17.69721518 50.30554988 -29.31366879
X -29.56886802 56.73442873 -53.67179868
X -21.65443279 27.23320639 -16.83106398
X -23.16595542 29.31364110 -11.68795313
X -32.01456301 13.95596493 -0.00000624
X -20.72026044 44.55538619 -6.73244062
X -23.16595542 45.35003659 -15.84882512
X -50.28912846 50.00202411 -17.62572862
X -41.44052087 31.09052828 -43.57315614
X -17.69721518 33.66208603 -39.41229244
X -9.78277995 40.39451162 -28.51900989
X -11.29430258 8.81283519 -40.20693582
X -40.86317060 10.09861950 -25.94744047
X -21.65443279 49.01977645 -19.21503713
X -25.61165041 47.73399213 -33.47453248
X -36.90595299 19.70612782 -24.35813582
X -16.18569255 34.76028910 -0.00001552
X -28.05734540 62.97573722 -28.51901998
X -11.87165285 43.26960266 -19.21503456
X 7.91443523 48.71625067 -7.52709696
X -19.20873781 29.01010524 -22.58123856
X -4.89138997 63.77040443 -0.00002848
X -38.41747561 22.76881435 -8.32173984
X -25.61165041 43.57312766 -32.67987614
X -29.56886802 50.00202074 -25.15280382
X -43.30886559 28.51898062 -25.15279422
X -33.52608564 39.41226397 -30.10831839
X -20.72026044 50.30555660 -14.25951839
X -12.80582520 39.41225902 -41.18919643
X -25.61165041 41.98382092 -27.72435613
X -38.41747561 47.73399134 -35.25143389
X -32.01456301 72.58324970 -17.62573871
X -31.08039065 38.61762108 -4.16088208
X -3.95721762 16.33991711 -25.15278878
X -11.29430258 19.70613535 -7.52708400
X 3.02304526 32.67985182 -10.89330016
X -8.84860759 36.53719468 9.30396030
X -41.44052087 32.67984846 -18.42037536
X -43.88621586 38.61762108 -4.16088208
X -23.16595542 40.20691694 -33.47452911
X -20.14291017 49.51091115 5.93774414
X -27.12317304 59.11840267 -30.10832720
X -26.54582277 33.96562862 -13.46485663
X -38.41747561 57.03796796 -35.25143805
X -38.41747561 59.60952650 -29.31367295
X -19.20873781 19.70613871 -0.00000880
X -52.73482345 26.43854670 -28.51900366
X -21.65443279 60.89531002 -16.83107901
X -30.50304038 41.98383596 5.93774751
X -33.52608564 19.21500480 -23.37588865
X -43.88621586 37.02830090 -29.31366285
X -44.82038822 65.85081739 -43.57317166
X -33.52608564 29.50123243 -14.25950910
X -16.76304282 54.16289195 -10.89330975
X -32.01456301 18.11682605 -8.32173776
X -30.50304038 32.67985518 -3.36622496
X -30.50304038 48.71623979 -31.88522397
X -4.89138997 15.05414704 -7.52708192
X -25.61165041 5.14310542 -14.25949823
X -18.27456545 52.08244793 -36.84074478
X -19.20873781 20.68837371 -26.74209967
X -35.97178063 18.42035439 -14.25950415
X -23.16595542 53.67176061 -28.51901582
X -32.94873537 49.51089355 -33.47453327
X -24.10012778 37.33184765 5.93774958
X -11.29430258 33.17095469 -57.03799851
X 9.42595786 19.70613119 -16.83106062
X -4.89138997 32.67984431 -27.72435197
X -46.33191084 21.78656511 -13.46485118
X -47.26608320 33.96562862 -13.46485663
X -40.86317060 62.97573049 -43.57317038
X -28.63469567 41.98383181 -3.36622911
X -6.40291260 54.95753403 -38.61764749
X -21.65443279 10.58973997 -32.67986141
X -35.39443036 28.51898062 -25.15279422
X -10.36013022 7.52707184 -7.52707856
X -15.25152019 33.47449470 -36.84073647
X -29.56886802 50.00201659 -34.45678044
X -28.05734540 38.61761099 -26.74210768
X -21.65443279 18.91146813 -36.04607550
X -42.37469323 25.64389452 -23.37589152
X -35.03760827 41.49271133 3.36619183
X -25.61165041 55.44864779 -60.40421883
X -32.01456301 33.17098316 6.73240591
X -39.92899824 30.59941454 -21.78658479
X -17.69721518 33.66209691 -15.05416544
X -26.54582277 33.96562190 -28.51900702
X -35.97178063 19.40259611 -25.94744463
X -21.65443279 50.00201402 -40.20695421
X -35.97178063 71.29746618 -30.10833263
X -3.95721762 43.26960603 -11.68795936
X -44.82038822 61.68995290 -42.77851533
X -17.69721518 26.92967053 -27.72434941
X -44.82038822 44.06425820 -16.83107149
X -24.10012778 61.68995707 -33.47453871
X -44.82038822 68.42238186 -24.35815758
X -52.73482345 48.22512269 -17.62572782
X -39.92899824 37.33184093 -9.11640081
X -29.56886802 29.80476236 -16.64347265
X -30.50304038 17.62570478 -3.36621824
X -48.77760583 53.67176061 -28.51901582
X -12.80582520 48.71624651 -16.83107357
X -28.05734540 11.68792959 -23.37588528
X -43.88621586 29.31363774 -19.21502833
X -8.84860759 54.16289195 -10.89330975
X -25.61165041 24.35810605 -46.93936349
X -28.99151776 50.79667787 -19.21503792
X -16.18569255 41.49269789 -26.74210896
X -20.14291017 36.04606334 -8.32174577
X -21.65443279 9.60750912 3.36620607
X -47.84343347 39.90339116 -21.78658894
X -35.03760827 29.01010108 -31.88521517
X -3.37986735 34.76027566 -30.10831632
X -35.97178063 27.72433437 -6.73243311
X -7.33708496 45.35003323 -23.37590032
X -38.41747561 9.30397661 -0.00000416
X -29.56886802 39.10873819 -18.42037823
X -12.80582520 59.60951563 -53.67179996
X -11.29430258 26.43853582 -52.87713067
X -35.97178063 38.61762444 3.36619312
X -28.99151776 33.17097229 -17.62572110
X -19.20873781 33.17097724 -6.54484306
X -47.26608320 38.12647550 -53.67179037
X -50.28912846 33.96561517 -43.57315742
X -40.86317060 67.13660506 -21.78660111
X -23.16595542 30.29588876 -10.09864462
X -35.39443036 48.71625067 -7.52709696
X -11.29430258 37.33184093 -9.11640081
X -54.24634608 31.09053837 -20.99193054
X -6.40291260 61.68997051 -3.36623792
X -33.52608564 41.00157663 -21.78658943
X -47.84343347 35.74253004 -13.46485742
X -33.52608564 21.78657263 3.36620063
X -17.69721518 33.66208267 -46.93936764
X -25.61165041 31.09054588 -4.16087873
X -6.40291260 54.95753068 -46.14472269
X -42.37469323 5.44662783 -33.47451359
X -27.12317304 57.52909930 -17.62573198
X -7.33708496 52.08244793 -36.84074478
X -16.18569255 28.02786015 -18.42037328
X -12.80582520 43.57312686 -34.45677756
X -20.14291017 37.02831099 -6.73243727
X -59.13773605 37.82297148 6.73240383
X 3.02304526 35.25140285 -21.78658687
X -15.25152019 67.13660506 -21.78660111
X -22.58860515 17.62568382 -50.30557085
X -32.01456301 46.63582011 -3.36623119
X -19.20873781 46.63581003 -25.94745679
X -15.25152019 10.09861614 -33.47451567
X -24.10012778 33.17096557 -32.67987150
X -35.03760827 22.27767886 -35.25142253
X -32.01456301 30.59940702 -38.61763660
X -31.08039065 14.25948991 -13.46484783
X -16.76304282 44.85891869 -3.36623039
X -38.41747561 16.03639548 -4.16087200
X -18.27456545 29.31363023 -36.04608014
X -21.65443279 24.05459451 -3.36622110
X -37.48330326 34.94786698 -32.67987229
X -25.61165041 6.73240878 -26.74209344
X -19.20873781 -2.08044064 -18.42035983
X -2.44569499 25.15276654 -33.47452239
X -3.95721762 12.17905342 -22.58123103
X -35.97178063 27.72431677 -46.14471052
X -18.27456545 45.35003995 -8.32174993
X -35.97178063 16.83104846 -7.52708271
X -28.63469567 44.55538283 -14.25951582
X -26.54582277 38.12648974 -21.78658815
X -29.56886802 13.76837696 10.09862494
X -3.37986735 35.74252668 -20.99193261
X -14.31734783 57.52910267 -10.09865679
X 0.00000000 35.25140957 -6.73243647
X -25.61165041 44.55537611 -29.31366622
X -52.73482345 54.95753483 -36.84074607
X -0.93417236 44.85890524 -33.47453119
X -29.56886802 13.76837360 2.57154974
X -7.33708496 41.18917547 -7.52709359
X -29.56886802 44.85890109 -42.77850781
X -24.67747805 25.64389036 -32.67986813
X -29.56886802 17.32217229 -6.73242846
X -25.61165041 13.46484110 -0.79466049
X -44.82038822 23.86698559 -40.20694254
X -19.20873781 34.76027822 -24.35814254
X -10.36013022 62.97573049 -43.57317038
X -42.37469323 38.12649310 -14.25951295
X -23.16595542 71.29746618 -30.10833263
X -26.54582277 16.33991711 -25.15278878
X -29.56886802 39.10873403 -27.72435485
X -32.01456301 59.11840940 -15.05417680
X -52.73482345 54.95754828 -6.73244527
X -11.29430258 26.43854590 -30.29590508
X -33.52608564 25.94742623 -21.78658271
X -31.08039065 16.83104094 -24.35813454
X -11.29430258 48.22512348 -15.84882640
X -17.69721518 26.92967388 -20.19727421
X -17.69721518 41.00157999 -14.25951424
X -23.16595542 34.45675324 -10.89330095
X -35.03760827 34.76028910 -0.00001552
X -31.08039065 34.45673564 -50.30557836
X -15.25152019 38.61760684 -36.04608430
X -38.41747561 63.77040107 -7.52710368
X -3.37986735 29.01009772 -39.41229037
X -20.72026044 50.30554988 -29.31366879
X -48.77760583 27.72434189 10.09861870
X -16.18569255 23.86699903 -10.09864175
X -9.78277995 43.57313181 -23.37589952
X -20.72026044 6.73240463 -36.04607006
X -15.25152019 27.72432013 -38.61763532
X -33.52608564 46.14468204 -36.04608766
X -40.86317060 49.51090028 -18.42038287
X -16.18569255 19.70613119 -16.83106062
X -25.61165041 13.46481934 -49.51091452
X -48.77760583 42.77846380 -53.67179244
X -16.76304282 47.43046971 -14.25951711
X -31.08039065 20.99190541 -25.15279086
X -19.20873781 8.81285616 6.73241679
X -25.61165041 21.78657263 3.36620063
X -3.37986735 50.79668123 -11.68796272
X -38.41747561 46.14469965 3.36618975
X -31.08039065 42.77848893 2.57153678
X -44.82038822 19.70611775 -46.93936141
X -20.72026044 28.51898814 -8.32174241
X -19.20873781 64.26151738 -23.56350125
X -18.27456545 29.31363358 -28.51900494
X 5.46874024 29.31363023 -36.04608014
X -29.56886802 51.59134844 16.83102877
X -37.48330326 38.12648638 -29.31366335
X -50.28912846 47.43047050 -12.48261569
X -44.82038822 41.49268958 -45.35006220
X -28.05734540 60.40418362 -23.37590704
X -19.20873781 15.54526830 -12.48260145
X -11.29430258 41.49269789 -26.74210896
X -18.27456545 38.61761099 -26.74210768
X -48.77760583 49.51089612 -27.72435949
X -12.80582520 28.51896638 -57.03799644
X -11.29430258 65.85083836 3.36618096
X -39.92899824 48.22511596 -32.67987823
X -40.86317060 18.42034767 -29.31365455
X -7.33708496 37.02829754 -36.84073806
X -41.44052087 20.19725165 -23.56348156
X 5.46874024 25.15276574 -35.25142381
X -27.12317304 50.79668043 -13.46486414
X -33.52608564 33.66209691 -15.05416544
X -35.03760827 33.17096892 -25.15279631
X -18.27456545 14.25947647 -43.57314861
X -28.05734540 19.40259948 -18.42036942
X -29.56886802 60.89529658 -46.93937981
X -60.64925868 39.90338779 -29.31366415
X -56.69204106 31.88519470 -16.83106606
X -33.52608564 54.46642109 -15.05417473
X -51.22330082 43.57312350 -41.98385276
X -39.92899824 50.79666699 -43.57316494
X -32.01456301 13.95595148 -30.10830703
X -51.22330082 35.25139949 -29.31366207
X -18.27456545 29.31362686 -43.57315533
X -34.46025800 29.80475485 -33.47452447
X -25.61165041 24.35812702 -0.00001088
X -12.80582520 41.98382428 -20.19728093
X -38.41747561 36.84070207 -43.57315870
X -12.80582520 41.98383932 13.46482270
X -37.48330326 18.91147070 -30.29590171
X -7.91443523 35.25140621 -14.25951167
X -16.76304282 43.26959515 -36.04608637
X -28.05734540 36.04604830 -41.98384940
X -8.84860759 25.64389788 -15.84881632
X -20.72026044 31.09052828 -43.57315614
X -16.76304282 55.75219788 -17.62573119
X -43.88621586 40.20693038 -3.36622832
X -25.61165041 59.60952986 -21.78659775
X -24.10012778 39.90339788 -6.73243855
X -2.44569499 7.52706512 -22.58122896
X -22.58860515 48.71625067 -7.52709696
X -15.25152019 38.61760605 -37.82298572
X 0.00000000 43.57313022 -26.92970237
X -0.93417236 54.16289531 -3.36623455
X -15.25152019 10.09862286 -18.42036527
X -32.01456301 8.81283855 -32.67986062
X -25.61165041 6.73240127 -43.57314526
X -33.52608564 29.50122570 -29.31365950
X -27.12317304 29.01010781 -16.83106477
X -29.56886802 47.43046715 -20.00969089
X -23.16595542 18.42035855 -4.95552754
X -41.44052087 40.39451835 -13.46485949
X -28.05734540 30.29588955 -8.32174320
X -2.44569499 20.99190541 -25.15279086
X -32.01456301 41.49270382 -13.46485998
X -42.37469323 58.32375227 -20.99194270
X -30.50304038 31.09053500 -28.51900573
X -19.20873781 15.54526750 -14.25950287
X -15.25152019 30.29588876 -10.09864462
X 3.95721762 36.53718716 -7.52709152
X -6.40291260 59.11839852 -39.41230382
X -50.28912846 39.10873482 -25.94745343
X -19.20873781 39.90338700 -31.09056556
X -55.18051843 29.80475821 -25.94744927
X -28.05734540 46.93934589 -15.05417136
X -11.29430258 44.06425228 -30.10832048
X -32.01456301 2.08042384 -19.21501616
X -32.01456301 48.22512012 -23.37590161
X -54.24634608 37.82295387 -32.67987358
X -50.28912846 51.59133420 -15.05417344
X -34.46025800 58.32375306 -19.21504128
X 9.42595786 50.79668795 3.36618767
X -24.10012778 34.76027822 -24.35814254
X -31.08039065 42.77848477 -6.73243983
X -42.37469323 27.23320303 -24.35813918
X -16.18569255 15.54525998 -31.09055468
X -31.08039065 47.92158346 -36.04608845
X -32.01456301 61.68996298 -20.19728973
X 0.00000000 21.78655839 -28.51900158
X -35.03760827 46.63581339 -18.42038159
X -40.86317060 67.13660842 -14.25952591
X -35.97178063 23.56346317 -20.99192717
X 11.87165285 33.96562862 -13.46485663
X -8.84860759 44.85890781 -27.72435741
X -33.52608564 31.09053837 -20.99193054
X -25.61165041 10.89327584 -21.78657599
X -35.97178063 7.52706847 -15.05415376
X -11.29430258 26.43853998 -43.57315406
X -7.33708496 37.02830090 -29.31366285
X -21.65443279 16.33992384 -10.09863839
X -13.73999756 36.53718716 -7.52709152
X -38.41747561 26.92968140 -3.36622239
X -15.25152019 36.04606254 -10.09864719
X -14.31734783 29.01010524 -22.58123856
X -33.52608564 32.67986271 13.46482686
X -46.33191084 35.25139533 -38.61763868
X -21.65443279 23.07234685 -4.95552961
X -38.41747561 20.19725997 -4.95552833
X -12.80582520 4.16085776 -15.84880673
X -34.46025800 58.32375979 -4.16089088
X -52.73482345 54.95754492 -14.25952047
X -56.69204106 31.88518877 -30.10831504
X 3.95721762 51.59131996 -46.93937565
X -48.77760583 7.52706512 -22.58122896
X -17.69721518 43.57312429 -40.20695135
X -28.05734540 45.35003244 -25.15280174
X -8.84860759 43.26960266 -19.21503456
X -48.77760583 20.99190957 -15.84881425
X -28.05734540 25.15278078 -1.58932017
X -38.41747561 35.25139869 -31.09056348
X -0.93417236 23.07234270 -14.25950623
X -21.65443279 40.69803740 -40.20695005
X -50.28912846 16.33992047 -17.62571358
X -11.29430258 41.49270382 -13.46485998
X 7.91443523 32.67984766 -20.19727677
X -11.29430258 19.70612447 -31.88521101
X -0.93417236 50.00201738 -32.67987902
X -40.86317060 34.45674988 -18.42037615
X -31.08039065 34.45673900 -42.77850317
X -25.61165041 26.92967388 -20.19727421
X -42.37469323 43.26959851 -28.51901118
X -24.67747805 27.23320303 -24.35813918
X -10.36013022 25.15277663 -10.89329679
X -27.12317304 19.70612526 -30.10830959
X -24.10012778 39.90339531 -12.48261232
X -38.41747561 48.71624651 -16.83107357
X -6.40291260 15.54527166 -4.95552625
X -23.16595542 29.31363695 -20.99192975
X -29.56886802 55.75220125 -10.09865599
X -39.92899824 46.63580666 -33.47453199
X -36.90595299 12.97370639 -25.94744175
X -31.08039065 53.67177148 -4.16088880
X -44.82038822 30.59941038 -31.09056141
X -9.78277995 28.51898062 -25.15279422
X -15.25152019 36.04605582 -25.15279759
X -25.61165041 10.89328255 -6.73242559
X -6.40291260 18.11682941 -0.79466256
X -25.61165041 35.25138109 -70.50284090
X 11.87165285 47.43047308 -6.73244191
X -44.82038822 39.90338443 -36.84073935
X -67.05217128 41.98381836 -33.47452991
X -48.77760583 10.09862959 -3.36621487
X -23.16595542 52.08245130 -29.31366958
X -25.61165041 28.51897646 -34.45677084
X -4.89138997 13.46483359 -17.62571230
X -39.92899824 65.85082491 -26.74211984
X -29.56886802 33.96561774 -37.82298363
X -35.97178063 53.67176733 -13.46486542
X -23.16595542 51.10019949 -40.20695470
X -16.76304282 16.33992799 -0.79466177
X -15.25152019 49.51088939 -42.77850989
X -3.37986735 28.02786015 -18.42037328
X -39.92899824 23.86698559 -40.20694254
X -40.86317060 42.77847468 -29.31366543
X -32.01456301 12.97371311 -10.89329136
X -33.52608564 57.03798636 5.93774078
X -14.31734783 19.70612111 -39.41228621
X 7.91443523 59.60953659 -6.73244735
X -21.65443279 60.89529993 -39.41230461
X -32.01456301 33.17096141 -41.98384812
X -7.33708496 42.77848893 2.57153678
X -7.33708496 45.35002907 -32.67987694
X -35.39443036 35.25139613 -36.84073726
X -21.65443279 51.59134507 9.30395358
X -29.56886802 16.33993135 6.73241343
X -52.73482345 22.27768973 -10.89329551
X -38.41747561 57.03797884 -10.89331103
X -19.20873781 34.76028574 -7.52709072
X -17.69721518 47.73399213 -33.47453248
X -52.73482345 46.63580666 -33.47453199
X -27.12317304 44.06425228 -30.10832048
X -40.86317060 34.45675324 -10.89330095
X -43.30886559 35.25140957 -6.73243647
X -42.37469323 28.21545900 -4.16087743
X -16.76304282 27.23319967 -31.88521437
X -28.63469567 37.82295387 -32.67987358
X -23.16595542 52.08245051 -31.09057100
X -38.41747561 4.16086784 6.73241887
X -26.54582277 54.16288186 -33.47453535
X -50.28912846 38.12648638 -29.31366335
X -8.84860759 5.44662783 -33.47451359
X -42.37469323 47.43045211 -53.67179453
X -25.61165041 15.05415120 1.77689469
X -38.41747561 24.35812365 -7.52708608
X -42.37469323 33.96563277 -4.16088001
X -2.44569499 29.31363023 -36.04608014
X -19.20873781 52.38597964 -35.25143597
X -37.48330326 55.75220204 -8.32175457
X -14.31734783 48.22511596 -32.67987823
X -17.69721518 31.09053421 -30.29590716
X -37.48330326 29.80474733 -50.30557629
X -9.78277995 50.30556749 10.09860862
X -36.90595299 29.01010860 -15.05416335
X -32.01456301 15.54525327 -46.14470508
X -20.14291017 34.45673900 -42.77850317
X -20.72026044 37.82296811 -0.79467136
X -21.65443279 58.32374555 -36.04609310
X -32.01456301 37.33182509 -44.55540587
X -47.26608320 16.33991039 -40.20693918
X -48.77760583 7.52706175 -30.10830415
X -30.50304038 28.51899486 6.73240799
X -40.86317060 34.45676411 13.46482606
X -6.40291260 61.68996042 -25.94746351
X -13.73999756 38.12650398 10.09861406
X -42.37469323 58.32374555 -36.04609310
X 3.95721762 12.17906351 -0.00000544
X -43.88621586 27.72432428 -29.31365870
X -51.22330082 28.51898398 -17.62571903
X -40.86317060 29.31363695 -20.99192975
X -33.52608564 46.14470380 12.67016637
X -22.23178306 33.17097229 -17.62572110
X -32.01456301 41.49269709 -28.51901038
X 1.51152263 19.70612526 -30.10830959
X -32.94873537 38.61761099 -26.74210768
X -32.01456301 46.63581259 -20.19728301
X -30.50304038 35.25141373 2.57154015
X -43.30886559 31.09053580 -26.74210431
X -39.92899824 19.70612447 -31.88521101
X 3.95721762 65.05617450 -17.62573534
X -34.46025800 14.75061789 -3.36621695
X -35.97178063 5.93775166 -32.67985934
X -3.95721762 47.43047308 -6.73244191
X -21.65443279 18.91146477 -43.57315069
X -30.50304038 59.60952986 -21.78659775
X -51.22330082 35.25140285 -21.78658687
X -7.33708496 27.72431341 -53.67178572
X -32.01456301 -6.24130849 -25.15277870
X -56.69204106 34.45675324 -10.89330095
X -25.61165041 65.35970700 -14.25952512
X -21.65443279 33.96563277 -4.16088001
X -55.18051843 23.07234606 -6.73243103
X -35.97178063 27.72433101 -14.25950830
X -15.25152019 41.18916795 -24.35814541
X -42.37469323 32.37631260 -29.31366078
X -16.76304282 39.10873819 -18.42037823
X -37.48330326 38.12650398 10.09861406
X -15.25152019 34.45675739 -1.58932433
X -24.10012778 54.95754155 -21.78659567
X -35.97178063 20.99189117 -57.03799308
X -20.72026044 36.84071550 -13.46485790
X -23.16595542 29.31363774 -19.21502833
X -29.56886802 33.96562269 -26.74210560
X -21.65443279 18.91146398 -45.35005212
X -46.33191084 43.57313102 -25.15280095
X -50.28912846 12.17905263 -24.35813245
X -43.30886559 37.82297148 6.73240383
X -9.78277995 48.71624058 -30.10832255
X -36.90595299 54.95754155 -21.78659567
X -29.56886802 21.48302252 -39.41228700
X -23.16595542 31.88519549 -15.05416463
X -29.56886802 55.75219452 -25.15280639
X -40.86317060 45.35003659 -15.84882512
X -7.91443523 31.09053916 -19.21502912
X -10.36013022 60.40418619 -17.62573327
X -35.97178063 36.04604494 -49.51092460
X -34.46025800 60.89529993 -39.41230461
X -9.78277995 36.84072302 3.36619391
X -16.76304282 47.43047308 -6.73244191
X -15.25152019 18.42035776 -6.73242895
X -29.56886802 8.01817806 -46.14470172
X -6.40291260 45.65355070 -53.67179372
X -48.77760583 3.36620400 -14.25949743
X -34.46025800 36.53718044 -22.58124191
X -34.46025800 69.21703562 -25.94746687
X -31.08039065 49.51090028 -18.42038287
X 11.87165285 43.26959931 -26.74210976
X -34.46025800 29.80477245 5.93775295
X -24.67747805 33.96561517 -43.57315742
X -55.18051843 23.07233934 -21.78658142
X -25.61165041 37.82296396 -10.09864798
X -32.01456301 68.42237850 -31.88523277
X -44.82038822 52.38597293 -50.30558637
X 5.46874024 49.51089691 -25.94745807
X -39.92899824 46.63581675 -10.89330639
X -23.16595542 34.45674652 -25.94745135
X -14.31734783 34.76027486 -31.88521774
X -44.82038822 2.08042384 -19.21501616
X -14.31734783 19.70611775 -46.93936141
X -11.29430258 44.06424476 -46.93937229
X 5.46874024 56.24331915 -22.58125071
X 7.91443523 35.25140957 -6.73243647
X -54.24634608 17.62569727 -20.19727005
X -33.52608564 16.03638797 -20.99192381
X -11.29430258 41.49269374 -36.04608558
X -43.88621586 46.93934589 -15.05417136
X -25.61165041 48.71623899 -33.66212539
X -28.05734540 18.42036191 2.57154767
X -13.73999756 25.64389373 -25.15279294
X -11.29430258 48.22511260 -40.20695343
X -12.80582520 47.73399470 -27.72435869
X -12.80582520 44.55537946 -21.78659103
X 7.91443523 31.09054925 3.36619648
X -24.10012778 34.76028574 -7.52709072
X -34.46025800 31.39406751 -25.15279550
X -19.20873781 24.84925164 2.57154479
X -20.72026044 31.09053916 -19.21502912
X -26.54582277 39.10873146 -33.47452862
X -39.92899824 39.90338364 -38.61764077
X -7.33708496 25.15277246 -20.19727342
X -40.86317060 27.72433101 -14.25950830
X -4.89138997 24.35810941 -39.41228829
X -25.61165041 44.55537867 -23.56349244
X -19.20873781 26.43853918 -45.35005547
X -28.05734540 31.88520222 -0.00001424
X -14.31734783 26.43855342 -13.46485326
X 1.51152263 34.76027822 -24.35814254
X -8.84860759 8.01819230 -14.25949950
X -38.41747561 10.89328671 2.57155103
X -43.30886559 24.35812702 -0.00001088
X -25.61165041 50.30554573 -38.61764540
X -17.69721518 40.39451499 -20.99193469
X 0.00000000 59.60952314 -36.84074815
X -30.50304038 17.62569806 -18.42036863
X -21.65443279 34.94786698 -32.67987229
X -24.10012778 44.06426315 -5.75019346
X -14.31734783 29.01010187 -30.10831375
X -35.97178063 64.56504395 -33.47453999
X -32.94873537 29.31364031 -13.46485454
X -34.46025800 5.44663119 -25.94743840
X -43.88621586 10.09861870 -27.72434189
X -20.14291017 25.15277663 -10.89329679
X -42.37469323 47.43046556 -23.56349373
X -54.24634608 17.62568719 -42.77849565
X -11.29430258 37.33182253 -50.30557964
X -38.41747561 54.46640685 -46.93937694
X -11.29430258 38.92114270 -25.15279887
X -20.72026044 39.41226989 -16.83106942
X -30.50304038 20.19725581 -14.25950495
X -28.05734540 14.25948398 -26.74209680
X -8.84860759 58.32375979 -4.16089088
X -33.52608564 25.94742959 -14.25950751
X -52.73482345 33.17096892 -25.15279631
X -21.65443279 23.07234270 -14.25950623
X -22.58860515 39.41227405 -7.52709281
X -10.36013022 46.93934509 -16.83107278
X -33.52608564 44.55537531 -31.09056765
X -16.76304282 60.89530666 -24.35815421
X -38.41747561 32.67984846 -18.42037536
X -34.46025800 39.10873482 -25.94745343
X -21.65443279 38.12649646 -6.73243776
X 3.95721762 38.12648558 -31.09056477
X -2.44569499 60.40418283 -25.15280846
X -42.37469323 40.69805084 -10.09864927
X 3.02304526 35.25139613 -36.84073726
X -46.33191084 46.14468956 -19.21503584
X -51.22330082 24.35812365 -7.52708608
X -33.52608564 21.78656927 -4.16087457
X -59.13773605 32.67984431 -27.72435197
X -23.16595542 14.25948734 -19.21502160
X -15.25152019 38.61760348 -43.57315949
X -20.14291017 49.51091452 13.46481934
X -37.48330326 47.43047388 -4.95554049
X -29.56886802 62.48461675 -21.78659903
X 9.42595786 30.59941118 -29.31365999
X -25.61165041 20.19724829 -31.09055676
X -34.46025800 54.16289195 -10.89330975
X -12.80582520 -4.16087792 -29.31364447
X -34.46025800 40.69802988 -57.03800188
X -40.86317060 25.15275902 -50.30557420
X -7.33708496 41.18916122 -39.41229581
X -4.89138997 26.92967804 -10.89329759
X -38.41747561 39.41226989 -16.83106942
X -14.31734783 41.49270045 -20.99193518
X -13.73999756 51.59133499 -13.27727202
X -24.67747805 29.80476078 -20.19727549
X -48.77760583 46.93934174 -24.35814798
X -13.73999756 32.37631180 -31.09056220
X -10.36013022 42.77846717 -46.14471725
X -20.14291017 36.04607006 6.73240463
X -41.44052087 41.98382508 -18.42037952
X -28.05734540 49.51088939 -42.77850989
X -21.65443279 58.32375979 -4.16089088
X -11.29430258 35.74253083 -11.68795600
X -43.30886559 59.60952314 -36.84074815
X -41.44052087 43.57313517 -15.84882433
X -30.50304038 6.73241135 -20.99191966
X -29.56886802 25.64389036 -32.67986813
X -46.33191084 43.57312429 -40.20695135
X -26.54582277 38.12648638 -29.31366335
X 3.95721762 32.37632011 -12.48260897
X -19.20873781 41.49268621 -52.87713739
X -50.28912846 32.37631595 -21.78658558
X -30.50304038 21.78655166 -43.57315198
X -29.56886802 16.33991039 -40.20693918
X -34.46025800 23.07233598 -29.31365662
X -24.67747805 43.26959515 -36.04608637
X -15.25152019 51.10020285 -32.67987951
X -28.05734540 41.18916874 -22.58124399
X -23.16595542 36.04606334 -8.32174577
X -25.61165041 26.92967132 -25.94744799
X -44.82038822 29.01010524 -22.58123856
X -24.10012778 53.36822810 -31.88522605
X -11.87165285 29.80476493 -10.89329887
X -18.27456545 25.15277663 -10.89329679
X -51.22330082 70.50281578 -20.99194814
X -48.77760583 45.35003995 -8.32174993
X -32.01456301 44.06424812 -39.41229709
X -25.61165041 61.19884668 -4.16089217
X -4.89138997 15.05414368 -15.05415712
X -51.22330082 41.98383181 -3.36622911
X -11.29430258 44.06425484 -24.35814669
X -20.72026044 46.14469628 -4.16088544
X -38.41747561 67.93126139 -17.62573662
X -20.14291017 29.31363358 -28.51900494
X -43.88621586 38.61761099 -26.74210768
X 5.46874024 41.18917211 -15.05416879
X -25.61165041 21.78656511 -13.46485118
X -17.69721518 20.19724494 -38.61763196
X -18.27456545 49.51090363 -10.89330767
X 1.51152263 19.70612782 -24.35813582
X -21.65443279 40.69804412 -25.15279966
X -23.16595542 42.77847468 -29.31366543
X -11.29430258 34.76027150 -39.41229294
X -20.72026044 48.71623307 -46.93937437
X -46.33191084 15.05415039 -0.00000672
X -32.94873537 42.77848141 -14.25951503
X -39.92899824 29.01010524 -22.58123856
X -28.99151776 30.59941118 -29.31365999
X -0.00000000 -0.00000336 -7.52707520
X -21.65443279 55.75219532 -23.37590497
X -32.01456301 26.43855085 -19.21502704
X -28.05734540 64.56505404 -10.89331440
X -32.01456301 26.43855837 -2.38397522
X -42.37469323 28.21544890 -26.74210303
X -14.31734783 8.81283855 -32.67986062
X -4.89138997 35.25141709 10.09861535
X -13.73999756 44.85891869 -3.36623039
X -16.76304282 20.50077823 -33.47452032
X -0.93417236 23.07233598 -29.31365662
X -25.61165041 58.62727805 -32.67988287
X -55.18051843 18.91148573 3.36620191
X -24.67747805 36.53718300 -16.83106814
X -19.20873781 18.11682189 -17.62571438
X -28.63469567 39.41227069 -15.05416800
X -23.16595542 25.15276654 -33.47452239
X 11.87165285 43.26960939 -4.16088416
X -25.61165041 48.71625067 -7.52709696
X -19.20873781 15.54525662 -38.61762988
X -27.12317304 23.86698559 -40.20694254
X -20.72026044 17.62570478 -3.36621824
X -33.52608564 13.46481598 -57.03798971
X -20.72026044 63.77039098 -30.10832928
X -11.29430258 19.70613871 -0.00000880
X -46.33191084 31.09053580 -26.74210431
X -15.25152019 56.24332250 -15.05417551
X -46.33191084 33.66209691 -15.05416544
X -41.44052087 48.71624058 -30.10832255
X -35.03760827 44.06425564 -22.58124527
X 1.51152263 50.79668795 3.36618767
X -32.01456301 29.01011276 -5.75018674
X -10.36013022 40.20690942 -50.30558093
X -35.97178063 14.25949407 -4.16087120
X -38.41747561 21.78655839 -28.51900158
X -22.23178306 23.86699903 -10.09864175
X -20.72026044 15.05414704 -7.52708192
X -39.92899824 24.84924412 -14.25950702
X -19.20873781 6.24128832 -20.00967249
X -33.52608564 43.57314190 -0.79467394
X -29.56886802 36.53718044 -22.58124191
X -4.89138997 48.71624058 -30.10832255
X -28.63469567 44.55538619 -6.73244062
X -3.37986735 30.59941118 -29.31365999
X -28.05734540 60.40417947 -32.67988366
X -32.94873537 34.45674988 -18.42037615
X -26.54582277 43.26959931 -26.74210976
X -54.24634608 32.67984846 -18.42037536
X -38.41747561 6.73241215 -19.21501824
X -55.18051843 18.91148238 -4.16087328
X -42.37469323 25.64390045 -10.09864255
X -0.93417236 50.00202746 -10.09865342
X -28.05734540 58.81487610 -20.19728845
X -50.28912846 44.85891869 -3.36623039
X -31.08039065 27.72433437 -6.73243311
X -11.29430258 22.27768637 -18.42037072
X -25.61165041 46.14467117 -60.40421468
X -19.20873781 4.65197743 -24.35812909
X -28.63469567 32.67984510 -25.94745055
X -46.33191084 57.03796875 -33.47453663
X -26.54582277 58.32376315 3.36618432
X -42.37469323 27.23320639 -16.83106398
X -22.58860515 17.62568719 -42.77849565
X -46.33191084 24.35810605 -46.93936349
X -32.01456301 4.65197407 -31.88520429
X -37.48330326 31.39407167 -15.84881889
X -12.80582520 20.19725917 -6.73242975
X -20.72026044 63.77039434 -22.58125408
X -21.65443279 18.91145726 -60.40420251
X 1.51152263 30.59941118 -29.31365999
X -19.20873781 39.90337692 -53.67179116
X -2.44569499 46.93934509 -16.83107278
X -35.97178063 56.24330826 -46.93937773
X -15.25152019 34.45673564 -50.30557836
X -20.72026044 28.51897646 -34.45677084
X -2.44569499 49.51090363 -10.89330767
X -28.99151776 23.86699903 -10.09864175
X -11.29430258 54.95754907 -4.95554385
X -59.13773605 52.87710763 -25.15280510
X -46.33191084 32.67983422 -50.30557757
X -30.50304038 48.71624395 -22.58124736
X -34.46025800 33.96561774 -37.82298363
X -19.20873781 34.76028910 -0.00001552
X -35.97178063 37.02830427 -21.78658766
X -40.86317060 10.09862959 -3.36621487
X -25.61165041 35.25140285 -21.78658687
X -19.20873781 50.79667708 -20.99193934
X -47.26608320 12.17906351 -0.00000544
X -42.37469323 36.53718380 -15.05416672
X -17.69721518 20.19725581 -14.25950495
X -38.41747561 33.66209355 -22.58124063
X -33.52608564 46.14470716 20.19724157
X -14.31734783 19.70613198 -15.05415920
X -50.28912846 23.07233854 -23.56348285
X -55.18051843 44.85891117 -20.19728221
X -11.87165285 33.96561853 -36.04608221
X -15.25152019 20.99189117 -57.03799308
X 5.46874024 31.88519885 -7.52708944
X -38.41747561 20.19726332 2.57154687
X -29.56886802 36.53716204 -63.77042075
X -38.41747561 59.60952235 -38.61764957
X -12.80582520 28.51896974 -49.51092124
X -27.12317304 34.76027486 -31.88521774
X 3.02304526 35.25139949 -29.31366207
X -6.40291260 15.54526750 -14.25950287
X -41.44052087 43.57314190 -0.79467394
X -40.86317060 20.99191214 -10.09864046
X -39.92899824 42.47494554 -25.15280046
X -42.37469323 44.85891869 -3.36623039
X -29.56886802 36.53719468 9.30396030
X -9.78277995 35.25139949 -29.31366207
X -25.61165041 50.30553901 -53.67179581
X -8.84860759 51.59134092 -0.00002304
X -15.25152019 34.45674988 -18.42037615
X -24.10012778 37.33184093 -9.11640081
X -44.82038822 29.01011612 1.77688846
X -27.12317304 48.22511933 -25.15280302
X -35.97178063 41.18915787 -46.93937101
X -59.13773605 24.35812030 -15.05416128
X -29.56886802 73.37791018 -4.16089760
X -55.18051843 29.80475485 -33.47452447
X 5.46874024 25.15277246 -20.19727342
X -16.76304282 40.69804412 -25.15279966
X -25.61165041 57.03796124 -50.30558844
X -19.20873781 39.90338443 -36.84073935
X -23.16595542 51.10021294 -10.09865391
X -28.63469567 17.62569727 -20.19727005
X -26.54582277 29.80474733 -50.30557629
X -21.65443279 66.64549132 -0.00002976
X -0.93417236 47.43046715 -20.00969089
X 1.51152263 8.81283519 -40.20693582
X -47.84343347 44.06426572 -0.00001968
X -19.20873781 15.54525998 -31.09055468
X -46.33191084 17.62570478 -3.36621824
X -25.61165041 11.87551756 -33.47451646
X -35.97178063 49.51089276 -35.25143469
X -25.61165041 51.28778746 -50.30558588
X -16.76304282 54.16288858 -18.42038495
X -40.86317060 52.08245130 -29.31366958
X -15.82887046 21.78655166 -43.57315198
X -35.03760827 37.33184349 -3.36622704
X -32.01456301 39.90338028 -46.14471596
X -50.28912846 16.33991374 -32.67986398
X -21.65443279 29.80475485 -33.47452447
X -11.87165285 33.96562525 -20.99193182
X -35.97178063 40.20692702 -10.89330351
X -40.86317060 31.88519212 -22.58123984
X -29.56886802 66.64548459 -15.05418016
X -39.92899824 19.70613119 -16.83106062
X -7.33708496 41.18916874 -22.58124399
X -50.28912846 16.33991039 -40.20693918
X -35.97178063 25.15278750 13.46483022
X -20.72026044 24.35811278 -31.88521309
X -55.18051843 27.23319967 -31.88521437
X -17.69721518 44.55537531 -31.09056765
X -42.37469323 38.12648558 -31.09056477
X -60.64925868 26.43855342 -13.46485326
X -9.78277995 33.66209612 -16.83106685
X -42.37469323 36.53717628 -31.88521853
X -8.84860759 16.33992126 -15.84881216
X -15.25152019 34.45676076 5.93775086
X -19.20873781 4.65198494 -7.52707728
X -30.50304038 32.67985182 -10.89330016
X -6.40291260 15.54525742 -36.84072846
X -28.99151776 30.59941454 -21.78658479
X -12.80582520 57.03796875 -33.47453663
X -38.41747561 13.46483694 -10.09863710
X -11.29430258 17.13458096 -4.16087249
X -16.76304282 50.00202411 -17.62572862
X -38.41747561 28.51899486 6.73240799
X -16.76304282 40.69803997 -34.45677628
X 5.46874024 38.61760684 -36.04608430
X -46.33191084 57.03797547 -18.42038624
X -21.65443279 32.37633019 10.09861663
X -22.23178306 50.79667451 -26.74211311
X 3.95721762 58.32374218 -43.57316829
X -37.48330326 20.50078159 -25.94744512
X -31.08039065 14.25948655 -20.99192302
X -23.16595542 49.51090107 -16.64348145
X -0.93417236 43.26960266 -19.21503456
X -7.33708496 27.72432765 -21.78658351
X -21.65443279 40.69804749 -17.62572447
X -40.86317060 53.67176733 -13.46486542
X -12.80582520 -0.00001345 -30.10830080
X -35.97178063 5.93775502 -25.15278414
X -20.72026044 55.44865530 -43.57316701
X -24.67747805 33.96563614 3.36619520
X -0.93417236 27.23319630 -39.41228958
X -27.12317304 22.27768301 -25.94744591
X -21.65443279 20.50078574 -16.64346850
X 1.51152263 8.81283855 -32.67986062
X -44.82038822 35.74252747 -19.21503119
X -35.97178063 34.45675404 -9.11639953
X -8.84860759 29.80477245 5.93775295
X -32.01456301 37.33182846 -37.02833067
X 0.00000000 20.19726332 2.57154687
X -33.52608564 41.98381756 -35.25143133
X -28.05734540 33.47450143 -21.78658607
X -21.65443279 38.12650061 2.57153886
X -17.69721518 20.19724829 -31.09055676
X 3.95721762 47.43046635 -21.78659231
X -47.26608320 18.91147229 -26.74209887
X -23.16595542 56.24331499 -31.88522733
X -21.65443279 40.69806252 16.03637917
X 1.51152263 37.33182253 -50.30557964
X -26.54582277 51.59132748 -30.10832384
X -39.35164797 27.23319294 -46.93936477
X -3.95721762 23.07233598 -29.31365662
X -44.82038822 22.27768637 -18.42037072
X -31.08039065 23.56345981 -28.51900238
X -38.41747561 44.55538619 -6.73244062
X -28.05734540 31.88519549 -15.05416463
X -21.65443279 32.37632268 -6.73243518
X -40.86317060 56.24330826 -46.93937773
X -38.41747561 26.92967804 -10.89329759
X -28.05734540 67.13660842 -14.25952591
X -16.76304282 21.48303004 -22.58123519
X -23.16595542 23.56346733 -11.68795056
X -30.50304038 32.67984510 -25.94745055
X -35.97178063 14.25948398 -26.74209680
X -0.93417236 40.69804749 -17.62572447
X -50.28912846 12.17904590 -39.41228285
X -20.14291017 25.15277998 -3.36622159
X -20.14291017 18.42035776 -6.73242895
X -20.72026044 59.60952314 -36.84074815
X -44.82038822 57.52909594 -25.15280718
X -13.73999756 40.69805501 -0.79467265
X -29.56886802 9.60749903 -19.21501953
X -43.88621586 46.93935261 -0.00002096
X -43.30886559 46.14468204 -36.04608766
X -46.33191084 41.98382844 -10.89330432
X -30.50304038 13.46483022 -25.15278750
X -23.16595542 36.04605502 -26.92969901
X -27.12317304 26.43855006 -20.99192846
X -17.69721518 20.19723821 -53.67178236
X -55.18051843 38.12648895 -23.56348957
X -29.56886802 47.43046556 -23.56349373
X -27.12317304 26.43854254 -37.82298028
X -20.14291017 47.92158009 -43.57316365
X -26.54582277 23.07234270 -14.25950623
X -29.56886802 17.32216892 -14.25950366
X -39.92899824 45.65356830 -14.25951631
X -35.97178063 20.99190126 -34.45676748
X -24.10012778 4.65196735 -46.93935470
X -23.16595542 30.29588540 -17.62571982
X -22.58860515 39.41226397 -30.10831839
X -12.80582520 31.09053500 -28.51900573
X -21.65443279 16.33992047 -17.62571358
X -0.93417236 33.96562525 -20.99193182
X -39.92899824 50.79668123 -11.68796272
X -43.30886559 52.87710763 -25.15280510
X -7.33708496 46.93934253 -22.58124656
X -21.65443279 43.26959100 -45.35006299
X -35.97178063 56.24331835 -24.35815213
X -20.72026044 21.78656175 -20.99192638
X -8.84860759 33.96561774 -37.82298363
X -7.91443523 21.78656511 -13.46485118
X -14.31734783 33.17097309 -15.84881968
X -47.84343347 44.06425564 -22.58124527
X -3.95721762 40.69804412 -25.15279966
X -19.20873781 30.59941038 -31.09056141
X -38.41747561 31.09055004 5.14309790
X -21.65443279 -2.87510113 -31.88520093
X -27.12317304 35.74253419 -4.16088080
X -17.69721518 13.46483359 -17.62571230
X -4.89138997 24.35812702 -0.00001088
X -4.89138997 55.44866538 -20.99194141
X -29.56886802 34.94787707 -10.09864670
X -28.63469567 48.71624395 -22.58124736
X -63.09495366 43.26960603 -11.68795936
X -17.69721518 24.35811198 -33.66211451
X -10.36013022 56.24330826 -46.93937773
X -29.56886802 32.37631260 -29.31366078
X -0.93417236 39.10873146 -33.47452862
X -24.10012778 23.86699647 -15.84881553
X -25.61165041 37.82294300 -57.03800060
X -29.56886802 42.28735007 -31.88522110
X -16.76304282 14.75061117 -18.42036735
X -17.69721518 41.98382508 -18.42037952
X -14.31734783 33.17096972 -23.37589488
X -50.28912846 29.80475406 -35.25142589
X -23.16595542 53.67176476 -19.21503920
X -17.69721518 39.41228493 16.83103422
X 1.51152263 57.52910267 -10.09865679
X -17.69721518 13.46482686 -32.67986271
X -40.86317060 42.77848141 -14.25951503
X -26.54582277 31.39406415 -32.67987071
X -20.72026044 25.94741951 -36.84073311
X -17.69721518 28.51897390 -40.20694463
X -20.14291017 37.02830762 -14.25951246
X -30.50304038 41.98382171 -25.94745471
X -30.50304038 59.60953322 -14.25952254
X -4.89138997 39.41226733 -22.58124320
X -37.48330326 47.43046971 -14.25951711
X -29.56886802 40.69806588 23.56345437
X -34.46025800 16.33992463 -8.32173697
X -4.89138997 39.41226653 -24.35814461
X -23.16595542 53.67177148 -4.16088880
X -25.61165041 67.93126139 -17.62573662
X -13.73999756 58.32374970 -26.74211648
X -14.31734783 44.06425148 -31.88522190
X -27.12317304 31.58166971 -3.36622447
X -36.90595299 34.76026815 -46.93936813
X -54.24634608 41.98383181 -3.36622911
X -20.14291017 38.61762444 3.36619312
X -7.33708496 27.72431677 -46.14471052
X -34.46025800 65.05617787 -10.09866014
X -63.09495366 29.80475485 -33.47452447
X -0.93417236 58.32374970 -26.74211648
X -23.16595542 27.72431677 -46.14471052
X -38.41747561 -0.00001008 -22.58122560
X -12.80582520 70.50281578 -20.99194814
X -19.20873781 45.65355821 -36.84074191
X -11.29430258 42.47495226 -10.09865006
X -43.88621586 49.51090779 -1.58933106
X -50.28912846 29.80474733 -50.30557629
X -37.48330326 21.48302252 -39.41228700
X -23.16595542 67.13661178 -6.73245072
X -16.76304282 8.01818222 -36.84072511
X 0.00000000 46.14468541 -28.51901246
X -16.76304282 12.17904255 -46.93935805
X -38.41747561 61.19883244 -36.04609438
X -35.97178063 57.83262845 -21.78659695
X -30.50304038 35.25139869 -31.09056348
X -47.84343347 46.63581675 -10.89330639
X -25.61165041 36.84070207 -43.57315870
X -39.35164797 36.53718044 -22.58124191
X -32.94873537 31.88518125 -46.93936685
X -19.20873781 70.01168859 -29.31367759
X -13.73999756 34.94787371 -17.62572189
X -40.86317060 41.18917883 -0.00001840
X -41.44052087 40.39451499 -20.99193469
X 3.95721762 58.32375563 -13.46486750
X -35.97178063 38.61759933 -52.87713611
X -28.05734540 41.18916795 -24.35814541
X -51.22330082 46.14468541 -28.51901246
X -13.73999756 42.28735086 -30.10831969
X -56.69204106 29.31363023 -36.04608014
X -24.10012778 41.49270382 -13.46485998
X -35.39443036 28.51898734 -10.09864383
X -35.97178063 49.51089691 -25.94745807
X -29.56886802 43.26959100 -45.35006299
X -31.08039065 40.20693038 -3.36622832
X -23.16595542 38.61761020 -28.51900910
X -0.93417236 47.43046971 -14.25951711
X -25.61165041 70.50280569 -43.57317373
X -52.73482345 19.70613119 -16.83106062
X 0.00000000 21.78656511 -13.46485118
X -15.25152019 38.61761020 -28.51900910
X -35.03760827 48.22512348 -15.84882640
X -30.50304038 21.78655839 -28.51900158
X -20.14291017 30.29587867 -32.67987022
X -34.46025800 25.64389709 -17.62571774
X -8.84860759 21.48304013 -0.00000959
X -32.01456301 54.95755243 2.57153134
X -2.44569499 49.51089612 -27.72435949
X -18.27456545 45.35003659 -15.84882512
X -24.10012778 50.79668123 -11.68796272
X -7.33708496 45.35003916 -10.09865135
X -56.69204106 25.15277998 -3.36622159
X -28.99151776 39.90339452 -14.25951375
X -24.10012778 15.54525327 -46.14470508
X -38.41747561 24.35811693 -22.58123647
X -25.61165041 18.60794651 -15.05415871
X -27.12317304 15.54525998 -31.09055468
X -35.03760827 15.54525998 -31.09055468
X -17.69721518 17.62569054 -35.25142045
X -32.01456301 65.85083163 -11.68796945
X -19.20873781 11.38439966 -20.99192174
X -27.12317304 12.97370639 -25.94744175
X -21.65443279 36.53717965 -24.35814334
X -36.90595299 22.27767965 -33.47452111
X -20.14291017 45.35002907 -32.67987694
X -31.08039065 56.24332250 -15.05417551
X -32.01456301 30.59941790 -14.25950959
X -59.13773605 10.89327247 -29.31365119
X -29.56886802 32.37632011 -12.48260897
X -37.48330326 38.12649310 -14.25951295
X -29.56886802 43.26959515 -36.04608637
X -27.12317304 4.65196735 -46.93935470
X -15.25152019 25.15277998 -3.36622159
X 7.91443523 24.35812702 -0.00001088
X -30.50304038 32.67984766 -20.19727677
X -19.20873781 37.33182925 -35.25142925
X -21.65443279 65.05617114 -25.15281055
X -13.73999756 16.33992047 -17.62571358
X -36.90595299 33.17097565 -10.09864590
X -20.72026044 44.55537946 -21.78659103
X -25.61165041 29.50122570 -29.31365950
X -15.25152019 56.24330826 -46.93937773
X -43.30886559 32.67984431 -27.72435197
X -43.88621586 40.20692702 -10.89330351
X -30.50304038 50.30555660 -14.25951839
X -17.69721518 9.30396574 -24.35813117
X -2.44569499 49.51089691 -25.94745807
X -33.52608564 52.87711436 -10.09865470
X -14.31734783 46.63582011 -3.36623119
X -13.73999756 47.43045963 -36.84074270
X -40.86317060 14.25947983 -36.04607341
X -20.14291017 31.88519549 -15.05416463
X -29.56886802 51.59132332 -39.41230045
X -51.22330082 63.77039355 -24.35815550
X -6.40291260 68.42237514 -39.41230797
X -19.20873781 30.59942542 2.57154223
X -54.24634608 24.35810941 -39.41228829
X -19.20873781 44.06425069 -33.66212331
X -27.12317304 39.90337692 -53.67179116
X -50.28912846 18.91146477 -43.57315069
X -46.33191084 63.77039098 -30.10832928
X -30.50304038 41.98381836 -33.47452991
X -19.20873781 29.01010860 -15.05416335
X -19.20873781 19.70613119 -16.83106062
X -56.69204106 18.42034767 -29.31365455
X -23.16595542 46.93933916 -30.10832176
X -42.37469323 27.23319967 -31.88521437
X -24.67747805 43.26960939 -4.16088416
X 3.02304526 21.78655839 -28.51900158
X -38.41747561 37.82297148 6.73240383
X -40.86317060 7.52706512 -22.58122896
X -24.10012778 26.43854333 -36.04607886
X -25.61165041 26.92967804 -10.89329759
X -39.92899824 33.17097981 -0.79466929
X 0.00000000 26.92968892 13.46482943
X -10.36013022 18.42035103 -21.78657935
X -29.56886802 49.01978317 -4.16088673
X -7.33708496 45.35003659 -15.84882512
X 9.42595786 30.59941454 -21.78658479
X -15.25152019 45.35002492 -41.98385356
X -27.12317304 61.68996042 -25.94746351
X -20.72026044 25.94742287 -29.31365792
X -43.88621586 25.15277246 -20.19727342
X 0.00000000 13.46484110 -0.79466049
X -28.99151776 33.17097565 -10.09864590
X -25.61165041 66.34194794 -27.72436701
X -29.56886802 33.96561853 -36.04608221
X -37.48330326 34.94787707 -10.09864670
X -38.41747561 24.35812445 -5.75018466
X -8.84860759 29.80476572 -9.11639745
X -30.50304038 17.62569727 -20.19727005
X -36.90595299 39.90339868 -4.95553713
X -38.41747561 46.14469212 -13.46486206
X -18.27456545 45.35003579 -17.62572654
X -38.41747561 43.57312013 -49.51092796
X -0.93417236 29.80475485 -33.47452447
X -52.73482345 35.74253755 3.36619439
X -2.44569499 10.09862286 -18.42036527
X -12.80582520 17.62569806 -18.42036863
X -18.27456545 38.61762444 3.36619312
X -11.87165285 23.07234606 -6.73243103
X -39.92899824 41.49269789 -26.74210896
X -31.08039065 31.88518797 -31.88521646
X -30.50304038 13.46483359 -17.62571230
X -38.41747561 43.57313022 -26.92970237
X -54.24634608 48.71625067 -7.52709696
X -20.14291017 31.88518797 -31.88521646
X -24.10012778 44.06424476 -46.93937229
X -11.29430258 44.06426236 -7.52709488
X -63.09495366 54.16289531 -3.36623455
X -38.41747561 39.41225229 -56.24334683
X -32.94873537 52.08245130 -29.31366958
X -35.97178063 20.99191293 -8.32173904
X -9.78277995 40.39451499 -20.99193469
X -2.44569499 41.18916874 -22.58124399
X -19.20873781 29.01010445 -24.35813997
X -26.54582277 36.53717707 -30.10831711
X -48.77760583 27.72433852 2.57154351
X -39.92899824 34.76027822 -24.35814254
X -19.20873781 26.43854749 -26.74210224
X -25.61165041 41.98381756 -35.25143133
X -27.12317304 59.11840940 -15.05417680
X -24.67747805 20.50077823 -33.47452032
X -51.22330082 35.25140957 -6.73243647
X -4.89138997 33.66210364 -0.00001503
X -28.63469567 37.82296059 -17.62572318
X -40.86317060 14.25948398 -26.74209680
X -28.05734540 7.52707520 -0.00000336
X -15.25152019 53.67177148 -4.16088880
X -0.93417236 51.59133756 -7.52709823
X -43.88621586 18.42035439 -14.25950415
X -21.65443279 32.37631180 -31.09056220
X -23.16595542 19.40260620 -3.36621903
X -2.44569499 34.45674315 -33.47452655
X -23.16595542 31.88519470 -16.83106606
X -28.05734540 23.56345644 -36.04607757
X -29.56886802 38.12648895 -23.56348957
X -12.80582520 35.25140701 -12.48261025
X -21.65443279 27.23319294 -46.93936477
X -40.86317060 16.83104173 -22.58123312
X -50.28912846 51.59132748 -30.10832384
X -28.05734540 67.13660170 -29.31367630
X -24.10012778 48.22512604 -10.09865262
X -15.25152019 29.31363358 -28.51900494
X -28.05734540 16.83103422 -39.41228493
X -15.25152019 31.88518718 -33.66211788
X -55.18051843 12.17906351 -0.00000544
X 3.02304526 32.67984846 -18.42037536
X -34.46025800 60.89529658 -46.93937981
X -4.89138997 41.98383932 13.46482270
X -38.41747561 35.25140205 -23.56348829
X -24.10012778 41.49271133 3.36619183
X -16.76304282 44.85890524 -33.47453119
X -10.36013022 45.35004331 -0.79467473
X -34.46025800 58.32374970 -26.74211648
X -37.48330326 23.07233519 -31.09055804
X -24.10012778 30.59941454 -21.78658479
X -25.61165041 41.00157663 -21.78658943
X -17.69721518 41.98382171 -25.94745471
X 0.00000000 24.35811357 -30.10831167
X -15.25152019 16.83103422 -39.41228493
X -43.30886559 37.82296811 -0.79467136
X -37.48330326 25.64387949 -57.03799516
X 7.91443523 17.62569471 -25.94744383
X -29.56886802 1.28577343 -10.09863166
X -34.46025800 29.80475741 -27.72435069
X -4.89138997 26.92967132 -25.94744799
X 11.87165285 27.23320303 -24.35813918
X -13.73999756 51.59133835 -5.75019682
X -24.10012778 33.17096813 -26.92969772
X 0.00000000 6.73241215 -19.21501824
X -4.89138997 21.78655166 -43.57315198
X -15.25152019 40.20692287 -20.19728013
X -15.25152019 19.40259611 -25.94744463
X -25.61165041 10.89327247 -29.31365119
X -29.56886802 28.21544475 -36.04607965
X -11.29430258 39.90338779 -29.31366415
X 0.00000000 21.78655503 -36.04607678
X -50.28912846 27.23320045 -30.10831296
X -23.16595542 62.97574058 -20.99194478
X -27.12317304 29.01009436 -46.93936557
X -11.29430258 46.63580924 -27.72435821
X 3.02304526 41.98382508 -18.42037952
X -18.27456545 31.88519549 -15.05416463
X -52.73482345 44.06426572 -0.00001968
X -19.20873781 19.70612111 -39.41228621
X -42.37469323 58.32375979 -4.16089088
X 5.46874024 45.35002907 -32.67987694
X -40.86317060 27.72433437 -6.73243311
X -59.13773605 37.82296139 -15.84882176
X -10.36013022 38.61760684 -36.04608430
X -13.73999756 35.55492862 -33.47452704
X -52.73482345 39.90338779 -29.31366415
X -35.97178063 23.56347405 3.36619984
X -6.40291260 41.49270382 -13.46485998
X -47.26608320 27.23320639 -16.83106398
X -3.95721762 18.91148573 3.36620191
X -19.20873781 44.06424060 -56.24334891
X -24.67747805 36.53718044 -22.58124191
X -19.20873781 54.95755580 10.09860655
X -41.44052087 48.71625067 -7.52709696
X -32.01456301 65.85083499 -4.16089425
X -26.54582277 43.26960266 -19.21503456
X -9.78277995 31.09052828 -43.57315614
X -34.46025800 38.12649646 -6.73243776
X 3.02304526 41.98382844 -10.89330432
X 9.42595786 33.17096220 -40.20694670
X -29.56886802 38.12648223 -38.61763997
X -13.73999756 24.66165280 -11.68795105
X -28.05734540 53.67175388 -43.57316622
X -21.65443279 42.28735342 -24.35814590
X -35.97178063 27.72432349 -31.09056013
X -29.56886802 12.17905006 -30.10830624
X 7.91443523 28.51898398 -17.62571903
X -21.65443279 13.76836688 -12.48260066
X -32.01456301 39.90338779 -29.31366415
X -3.37986735 22.27767886 -35.25142253
X -30.50304038 48.71624730 -15.05417216
X -17.69721518 57.03798220 -3.36623583
X -0.93417236 32.37631932 -14.25951039
X -33.52608564 57.03798971 13.46481598
X -43.88621586 23.56345981 -28.51900238
X -40.86317060 29.31362686 -43.57315533
X -12.80582520 63.77039691 -16.83108029
X -33.52608564 41.98381420 -42.77850652
X -22.58860515 24.35810941 -39.41228829
X -60.64925868 26.43854333 -36.04607886
X 1.51152263 48.22511933 -25.15280302
X -40.86317060 38.61762444 3.36619312
X -15.25152019 52.08245130 -29.31366958
X -46.33191084 17.62569054 -35.25142045
X -12.80582520 43.57313437 -17.62572575
X -32.01456301 70.01169531 -14.25952719
X -2.44569499 14.25948734 -19.21502160
X -19.20873781 15.54527166 -4.95552625
X -55.18051843 51.59132332 -39.41230045
X -55.18051843 36.53718716 -7.52709152
X -19.20873781 26.43854670 -28.51900366
X -31.08039065 41.18917132 -16.83107021
X -25.61165041 57.03797963 -9.11640962
X -32.01456301 44.06425069 -33.66212331
X -23.16595542 44.36778734 -20.99193647
X -33.52608564 32.67984926 -16.64347394
X -21.65443279 42.28734334 -46.93937150
X -12.80582520 74.66368363 -14.25952927
X -2.44569499 45.35004667 6.73240047
X -11.29430258 29.01010781 -16.83106477
X -19.20873781 18.11681932 -23.37588816
X -43.88621586 36.04605661 -23.37589617
X -29.56886802 40.69805243 -6.54484643
X -35.97178063 7.52706512 -22.58122896
X -35.97178063 47.92159018 -20.99193806
X -28.05734540 10.09861535 -35.25141709
X -15.25152019 56.24331915 -22.58125071
X -29.56886802 23.07233519 -31.09055804
X -39.35164797 43.26961275 3.36619104
X -29.56886802 53.18063341 -36.84074527
X -28.05734540 31.88519470 -16.83106606
X -21.65443279 58.32375563 -13.46486750
X -14.31734783 44.06426236 -7.52709488
X -43.88621586 36.04605997 -15.84882097
X -16.76304282 54.16287771 -42.77851197
X -44.82038822 26.43855006 -20.99192846
X -40.86317060 38.61760684 -36.04608430
X -48.77760583 27.72433517 -4.95553169
X -21.65443279 28.21545148 -20.99192926
X -29.56886802 28.21545563 -11.68795264
X -13.73999756 51.59133083 -22.58124864
X -30.50304038 41.98383260 -1.58932769
X -2.44569499 25.15276911 -27.72434862
X -39.92899824 39.90339195 -20.00968752
X -11.29430258 57.52908922 -40.20695758
X 1.51152263 41.49270045 -20.99193518
X -29.56886802 18.91146062 -52.87712731
X -40.86317060 45.35002907 -32.67987694
X -55.18051843 47.43046635 -21.78659231
X -17.69721518 50.30556076 -4.95554178
X -13.73999756 55.75220540 -0.79467937
X -32.01456301 35.74252668 -20.99193261
X -31.08039065 27.72433101 -14.25950830
X -21.65443279 18.91148238 -4.16087328
X -54.24634608 28.51898062 -25.15279422
X -44.82038822 19.70613119 -16.83106062
X -20.72026044 55.44866875 -13.46486622
X -19.20873781 8.81283519 -40.20693582
X -27.12317304 61.68996714 -10.89331311
X -2.44569499 23.56347068 -4.16087536
X -23.16595542 34.45673564 -50.30557836
X -11.29430258 18.11681181 -40.20693998
X -44.82038822 34.76027486 -31.88521774
X -38.41747561 20.19724573 -36.84073055
X -39.35164797 36.53719052 -0.00001631
X -48.77760583 36.04604158 -57.03799980
X -37.48330326 54.16288522 -25.94746015
X -23.16595542 20.99190206 -32.67986606
X -4.89138997 37.82296475 -8.32174657
X -6.40291260 12.97371647 -3.36621615
X -19.20873781 48.22510509 -57.03800524
X -20.72026044 10.89327247 -29.31365119
X 3.95721762 44.85891117 -20.19728221
X -33.52608564 25.94742702 -20.00968130
X -15.25152019 52.08244715 -38.61764620
X -7.33708496 38.61760684 -36.04608430
X -37.48330326 47.43047308 -6.73244191
X -25.61165041 17.62570143 -10.89329344
X -25.61165041 43.57313517 -15.84882433
X -10.36013022 25.15276574 -35.25142381
X -33.52608564 9.30395902 -39.41228157
X -16.76304282 33.96562605 -19.21503040
X -21.65443279 66.64548123 -22.58125536
X -42.37469323 25.64389036 -32.67986813
X -4.89138997 55.44866875 -13.46486622
X -44.82038822 45.65355070 -53.67179372
X 3.02304526 17.62569390 -27.72434525
X -39.35164797 23.07233934 -21.78658142
X -33.52608564 28.51897646 -34.45677084
X -17.69721518 20.19724573 -36.84073055
X -6.40291260 19.70613198 -15.05415920
X -39.35164797 47.43045963 -36.84074270
X -7.33708496 38.61762444 3.36619312
X 5.46874024 20.99189869 -40.20694126
X -7.91443523 10.89326911 -36.84072639
X -19.20873781 48.22511933 -25.15280302
X -43.88621586 53.67176476 -19.21503920
X -39.92899824 41.49270461 -11.68795856
X -35.97178063 31.88519628 -13.27726322
X -6.40291260 37.33183677 -18.42037743
X -48.77760583 60.40418955 -10.09865807
X -4.89138997 17.62570143 -10.89329344
X -42.37469323 36.53719468 9.30396030
X -27.12317304 65.85082826 -19.21504464
X -15.25152019 45.35003244 -25.15280174
X -15.25152019 26.13502507 -7.52708687
X -46.33191084 25.94743295 -6.73243232
X -29.56886802 44.85891948 -1.58932898
X -52.73482345 23.86698895 -32.67986735
X -24.67747805 29.80475069 -42.77850109
X -38.41747561 6.73240463 -36.04607006
X -42.37469323 9.60749903 -19.21501953
X -30.50304038 17.62569054 -35.25142045
X -20.14291017 53.67176476 -19.21503920
X -42.37469323 18.91146477 -43.57315069
X -32.01456301 37.33182174 -52.08248107
X -32.01456301 22.27768557 -20.19727212
X -31.08039065 49.51090107 -16.64348145
X -35.03760827 46.63581675 -10.89330639
X -34.46025800 65.05617114 -25.15281055
X -38.41747561 43.57312766 -32.67987614
X -44.82038822 52.38597629 -42.77851117
X -24.67747805 51.59133756 -7.52709823
X -35.97178063 29.31363023 -36.04608014
X -34.46025800 29.80477581 13.46482814
X -25.61165041 24.35810941 -39.41228829
X -27.12317304 31.58165963 -25.94745006
X -42.37469323 29.80476572 -9.11639745
X -20.72026044 31.09054588 -4.16087873
X -12.80582520 48.71624395 -22.58124736
X -34.46025800 36.53719804 16.83103550
X -15.25152019 7.52707184 -7.52707856
X -22.23178306 46.63582011 -3.36623119
X -0.93417236 36.53716955 -46.93936893
X -38.41747561 59.60953322 -14.25952254
X -9.78277995 41.98381836 -33.47452991
X -23.16595542 34.45676411 13.46482606
X -28.05734540 62.97574394 -13.46486958
X -35.97178063 33.47449470 -36.84073647
X -19.20873781 -2.08044737 -33.47451022
X -39.92899824 22.27767214 -50.30557292
X -8.84860759 40.69804412 -25.15279966
X -30.50304038 41.98381756 -35.25143133
X -26.54582277 40.69804828 -15.84882305
X -35.97178063 67.13661178 -6.73245072
X -20.72026044 13.46483022 -25.15278750
X -27.12317304 57.52909258 -32.67988238
X -38.41747561 43.57312429 -40.20695135
X -25.61165041 9.30396989 -15.05415455
X -42.37469323 32.37631595 -21.78658558
X -4.89138997 35.25139869 -31.09056348
X -55.18051843 58.32375563 -13.46486750
X -17.69721518 28.51898734 -10.09864383
X -7.33708496 36.04606254 -10.09864719
X -18.27456545 25.15276654 -33.47452239
X -35.97178063 47.92158009 -43.57316365
X -24.10012778 29.01010781 -16.83106477
X -25.61165041 24.35812109 -13.27725986
X -35.03760827 29.01009436 -46.93936557
X -39.35164797 54.16289531 -3.36623455
X -28.05734540 31.88519628 -13.27726322
X -19.20873781 48.22511853 -26.92970444
X 3.02304526 25.94742623 -21.78658271
X -44.82038822 45.65356415 -23.56349293
X -36.90595299 30.59940030 -53.67178700
X -60.64925868 26.43854670 -28.51900366
X -34.46025800 51.59131996 -46.93937565
X 3.02304526 39.41227405 -7.52709281
X -47.84343347 28.02786688 -3.36622288
X -21.65443279 12.17905342 -22.58123103
X -44.82038822 59.11840860 -16.83107822
X -16.76304282 23.07234685 -4.95552961
X -28.99151776 39.90339116 -21.78658894
X -19.20873781 65.85082411 -28.51902126
X -44.82038822 54.95753740 -31.09057228
X -29.56886802 50.00201402 -40.20695421
X -42.37469323 32.37630923 -36.84073598
X -56.69204106 27.72432765 -21.78658351
X -29.56886802 8.01818557 -29.31364991
X -52.73482345 39.90338443 -36.84073935
X -23.16595542 47.92158009 -43.57316365
X -29.56886802 24.05459451 -3.36622110
X -11.29430258 57.52910267 -10.09865679
X -34.46025800 47.43046220 -31.09056892
X 0.00000000 41.98382844 -10.89330432
X -12.80582520 28.51898477 -15.84881760
X -7.91443523 24.35811693 -22.58123647
X -67.05217128 48.71625067 -7.52709696
X -35.97178063 36.04604830 -41.98384940
X -39.35164797 29.80476829 -3.36622368
X -60.64925868 19.70612111 -39.41228621
X -7.33708496 49.51091452 13.46481934
X -35.97178063 38.61761851 -9.91105586
X -24.10012778 31.58166635 -10.89329967
X -20.72026044 46.14467869 -43.57316285
X -3.37986735 15.54525998 -31.09055468
X -39.92899824 37.33183677 -18.42037743
X -35.97178063 37.02831099 -6.73243727
X -28.99151776 37.33183677 -18.42037743
X -11.29430258 8.81284191 -25.15278543
X -15.25152019 23.56346653 -13.46485198
X -44.82038822 26.43855085 -19.21502704
X -4.89138997 35.25138861 -53.67178908
X -21.65443279 36.53716877 -48.71627034
X -32.01456301 52.38599053 -10.89330896
X 7.91443523 46.14468541 -28.51901246
X -44.82038822 37.33182925 -35.25142925
X -14.31734783 37.33183004 -33.47452783
X -4.89138997 52.87710763 -25.15280510
X -0.93417236 40.69804412 -25.15279966
X -42.37469323 40.69804749 -17.62572447
X -19.20873781 37.33183261 -27.72435405
X -4.89138997 33.66209691 -15.05416544
X -8.84860759 23.07232846 -46.14470845
X -33.52608564 39.41227148 -13.27726658
X -33.52608564 22.76880348 -32.67986686
X -34.46025800 69.21703226 -33.47454207
X -13.73999756 32.37631595 -21.78658558
X -23.16595542 38.61761357 -20.99193390
X -25.61165041 41.98383596 5.93774751
X -46.33191084 10.89327584 -21.78657599
X -21.65443279 18.91147565 -19.21502368
X -16.76304282 21.48303340 -15.05415999
X -44.82038822 61.68994955 -50.30559053
X -13.73999756 47.43046715 -20.00969089
X -35.97178063 38.61761357 -20.99193390
X -17.69721518 19.21500480 -23.37588865
X -35.97178063 27.72433852 2.57154351
X -9.78277995 31.09053165 -36.04608093
X -21.65443279 36.53717292 -39.41229373
X -27.12317304 12.97370976 -18.42036656
X -17.69721518 32.67984846 -18.42037536
X -34.46025800 32.37632347 -4.95553377
X -55.18051843 36.53719052 -0.00001631
X -39.92899824 37.33184765 5.93774958
X -12.80582520 50.30555997 -6.73244319
X -44.82038822 44.06425148 -31.88522190
X -38.41747561 70.50281914 -13.46487294
X -10.36013022 34.45675739 -1.58932433
X -32.01456301 54.95754907 -4.95554385
X 5.46874024 14.25948655 -20.99192302
X -50.28912846 43.26959931 -26.74210976
X -17.69721518 22.76881356 -10.09864125
X -50.28912846 36.53717628 -31.88521853
X -46.33191084 10.89327247 -29.31365119
X -29.56886802 13.76837024 -4.95552545
X -2.44569499 16.83103837 -30.10830831
X -33.52608564 52.87711515 -8.32175328
X -54.24634608 46.14468620 -26.74211104
X -12.80582520 46.14467452 -52.87713948
X -50.28912846 54.16288522 -25.94746015
X -2.44569499 40.20691278 -42.77850573
X -18.27456545 38.61761772 -11.68795728
X -7.91443523 32.67984431 -27.72435197
X -29.56886802 9.60750576 -4.16086913
X -50.28912846 47.43047723 2.57153471
X -12.80582520 17.62570222 -9.11639202
X -23.16595542 60.40417610 -40.20695886
X -35.97178063 46.93934925 -7.52709616
X -33.52608564 50.30555660 -14.25951839
X -17.69721518 48.71624651 -16.83107357
X -36.90595299 23.86699566 -17.62571695
X -35.39443036 48.71624058 -30.10832255
X -12.80582520 35.25139197 -46.14471389
X -39.92899824 12.97371311 -10.89329136
X 3.95721762 12.17905006 -30.10830624
X -34.46025800 43.26960187 -20.99193598
X -12.80582520 17.62570143 -10.89329344
X -16.18569255 34.76027566 -30.10831632
X -26.54582277 38.12648301 -36.84073855
X -13.73999756 33.96561853 -36.04608221
X -39.92899824 15.54524990 -53.67178028
X -29.56886802 20.50079247 -1.58931810
X -35.97178063 26.13501498 -30.10831247
X -6.40291260 15.54526830 -12.48260145
X -34.46025800 43.26960266 -19.21503456
X -16.76304282 14.75060444 -33.47451775
X -32.01456301 54.95754155 -21.78659567
X -8.84860759 25.64390045 -10.09864255
X -28.05734540 36.04605166 -34.45677420
X 1.51152263 29.01011532 -0.00001296
X -23.16595542 60.40418619 -17.62573327
X 9.42595786 50.79667787 -19.21503792
X -23.16595542 46.93934509 -16.83107278
X -0.93417236 23.07233182 -38.61763325
X -10.36013022 38.61760348 -43.57315949
X -17.69721518 52.87711515 -8.32175328
X -13.73999756 39.10874491 -3.36622783
X -39.92899824 15.54525662 -38.61762988
X -38.41747561 31.09054925 3.36619648
X -7.91443523 52.87710091 -40.20695550
X -42.37469323 51.59132748 -30.10832384
X 9.42595786 26.43854670 -28.51900366
X -31.08039065 46.93934589 -15.05417136
X -28.05734540 14.25947983 -36.04607341
X -30.50304038 35.25140285 -21.78658687
X -39.92899824 22.27768301 -25.94744591
X -15.25152019 23.56346060 -26.74210096
X -31.08039065 36.04606254 -10.09864719
X -13.73999756 58.32376315 3.36618432
X -35.97178063 36.04604158 -57.03799980
X -6.40291260 22.27768973 -10.89329551
X -12.80582520 37.82297148 6.73240383
X -13.73999756 39.10873067 -35.25143005
X -12.80582520 24.35812365 -7.52708608
X -19.20873781 15.54524990 -53.67178028
X -29.56886802 56.73444218 -23.56349788
X -51.22330082 48.71624395 -22.58124736
X -32.01456301 8.81285616 6.73241679
X -25.61165041 55.44865530 -43.57316701
X -37.48330326 51.59134092 -0.00002304
X -9.78277995 24.35811278 -31.88521309
X -35.03760827 33.17097229 -17.62572110
X -29.56886802 14.75059693 -50.30556956
X -21.65443279 29.80474654 -52.08247771
X -33.52608564 21.78655839 -28.51900158
X -11.29430258 26.43853918 -45.35005547
X -35.03760827 29.01009772 -39.41229037
X -30.50304038 37.82295052 -40.20694878
X -39.92899824 33.17097229 -17.62572110
X -6.40291260 4.65198494 -7.52707728
X -20.14291017 52.08245803 -14.25951919
X -12.80582520 55.44865530 -43.57316701
X -54.24634608 24.35811278 -31.88521309
X -44.82038822 24.84924492 -12.48260560
X -32.94873537 31.88519470 -16.83106606
X -38.41747561 10.89327663 -20.00967458
X -24.10012778 44.06425820 -16.83107149
X -33.52608564 61.19883996 -19.21504257
X -32.01456301 12.97370976 -18.42036656
X -6.40291260 61.68996379 -18.42038831
X -35.97178063 42.77846380 -53.67179244
X -0.93417236 40.69804077 -32.67987486
X -27.12317304 4.65198079 -16.83105389
X -0.93417236 29.80474733 -50.30557629
X -12.80582520 36.84070542 -36.04608351
X -63.09495366 33.96562525 -20.99193182
X -14.31734783 50.79667787 -19.21503792
X -25.61165041 57.03798299 -1.58933441
X -41.44052087 17.62569054 -35.25142045
X -19.20873781 29.01011276 -5.75018674
X -32.01456301 37.33181837 -59.60955626
X -26.54582277 50.00201738 -32.67987902
X -10.36013022 20.99190621 -23.37588944
X -2.44569499 27.72433517 -4.95553169
X -39.92899824 29.01011532 -0.00001296
X -20.72026044 26.92966796 -33.47452318
X -22.23178306 30.59941118 -29.31365999
X -25.61165041 28.51899565 8.50930940
X -24.10012778 50.79666699 -43.57316494
X -34.46025800 43.26961275 3.36619104
X -29.56886802 47.43045211 -53.67179453
X -19.20873781 23.86700319 -0.79466513
X -37.48330326 33.96563614 3.36619520
X -25.61165041 19.21500815 -15.84881345
X -42.37469323 51.59133340 -16.83107486
X -55.18051843 25.64390124 -8.32174113
X -0.93417236 25.64390045 -10.09864255
X -33.52608564 48.71624315 -24.35814878
X -16.76304282 65.05617450 -17.62573534
X -8.84860759 40.69804077 -32.67987486
X -46.33191084 41.98382587 -16.64347809
X -30.50304038 46.14469212 -13.46486206
X -34.46025800 36.53717965 -24.35814334
X -15.25152019 23.56347068 -4.16087536
X -41.44052087 36.84070958 -26.74210689
X -25.61165041 44.55537946 -21.78659103
X -26.54582277 32.37631932 -14.25951039
X -48.77760583 18.42035103 -21.78657935
X -25.61165041 54.46641437 -30.10832512
X -29.56886802 54.16288186 -33.47453535
X -32.94873537 45.35003916 -10.09865135
X 1.51152263 19.70613119 -16.83106062
X -8.84860759 36.53717965 -24.35814334
X -27.12317304 50.79667787 -19.21503792
X -25.61165041 24.35811357 -30.10831167
X -24.67747805 33.96562941 -11.68795520
X -8.84860759 25.64389373 -25.15279294
X -28.05734540 23.56346653 -13.46485198
X -34.46025800 43.26959931 -26.74210976
X -37.48330326 36.53717707 -30.10831711
X -36.90595299 37.33183341 -25.94745264
X -34.46025800 51.59133083 -22.58124864
X -51.22330082 48.71624730 -15.05417216
X -3.37986735 15.54524990 -53.67178028
X -19.20873781 12.97371311 -10.89329136
X -50.28912846 25.64389036 -32.67986813
X -41.44052087 21.78655839 -28.51900158
X -7.33708496 45.35004667 6.73240047
X -31.08039065 18.42034767 -29.31365455
X -37.48330326 36.53717628 -31.88521853
X -32.94873537 18.42035776 -6.73242895
X -50.28912846 44.85891196 -18.42038079
X -27.12317304 33.17096220 -40.20694670
X -44.82038822 39.90340540 10.09861326
X -19.20873781 28.02786015 -18.42037328
X -24.10012778 30.59941038 -31.09056141
X -23.16595542 37.02830427 -21.78658766
X -50.28912846 27.23321055 -7.52708736
X -27.12317304 33.17097565 -10.09864590
X -25.61165041 35.25139454 -40.39454010
X 1.51152263 15.54526078 -29.31365327
X 0.00000000 35.25139949 -29.31366207
X -46.33191084 37.82295724 -25.15279838
X -16.18569255 22.27767549 -42.77849772
X -16.76304282 49.01976894 -36.04608894
X -52.73482345 33.17097229 -17.62572110
X -27.12317304 41.49270045 -20.99193518
X -56.69204106 42.77847468 -29.31366543
X -33.52608564 55.44866202 -28.51901662
X -20.14291017 46.93934589 -15.05417136
X -38.41747561 52.87710684 -26.92970652
X -29.56886802 24.66165615 -4.16087585
X -2.44569499 52.08244793 -36.84074478
X -33.52608564 36.84071550 -13.46485790
X -25.61165041 13.46483694 -10.09863710
X -41.44052087 50.30556749 10.09860862
X -14.31734783 37.33183598 -20.19727885
X -35.97178063 41.18917132 -16.83107021
X -15.25152019 20.99190957 -15.84881425
X -15.25152019 40.20691614 -35.25143054
X -42.37469323 21.48302668 -30.10831039
X -51.22330082 20.19726332 2.57154687
X -22.23178306 26.43853998 -43.57315406
X -25.61165041 62.18108346 -26.92971067
X -29.56886802 47.43046299 -29.31366750
X -21.65443279 28.21545563 -11.68795264
X -30.50304038 43.57313437 -17.62572575
X -34.46025800 23.07234270 -14.25950623
X -17.69721518 35.25140364 -20.00968545
X -29.56886802 20.50078831 -10.89329471
X -21.65443279 -2.87510786 -46.93935133
X -8.84860759 47.43046299 -29.31366750
X -7.91443523 21.78655839 -28.51900158
X -23.16595542 67.13659834 -36.84075150
X -25.61165041 41.98381341 -44.55540794
X -27.12317304 33.17097981 -0.79466929
X -51.22330082 24.35812030 -15.05416128
X -31.08039065 10.09861870 -27.72434189
X -20.72026044 20.19724573 -36.84073055
X -48.77760583 53.67176733 -13.46486542
X -44.82038822 54.95754155 -21.78659567
X -43.88621586 41.18917883 -0.00001840
X -32.01456301 33.17096972 -23.37589488
X -38.41747561 28.51898142 -23.37589280
X -14.31734783 41.49269037 -43.57316078
X 11.87165285 54.16288186 -33.47453535
X -8.84860759 39.10873482 -25.94745343
X -36.90595299 29.01010187 -30.10831375
X -2.44569499 45.35003995 -8.32174993
X -20.72026044 32.67984174 -33.47452576
X -32.01456301 41.49268286 -60.40421259
X -16.76304282 23.07233934 -21.78658142
X -22.58860515 17.62569390 -27.72434525
X -19.20873781 35.74251659 -43.57315821
X -54.24634608 52.87710842 -23.37590368
X -47.84343347 29.01009772 -39.41229037
X -21.65443279 16.33991711 -25.15278878
X -20.14291017 41.18916122 -39.41229581
X -44.82038822 72.58325306 -10.09866351
X -31.08039065 31.88519885 -7.52708944
X -29.56886802 28.21545484 -13.46485405
X -47.26608320 43.26960603 -11.68795936
X 0.00000000 28.51898398 -17.62571903
X -17.69721518 46.14470380 12.67016637
X -52.73482345 8.81284191 -25.15278543
X -52.73482345 41.49270382 -13.46485998
X -32.01456301 19.70613277 -13.27725778
X -28.05734540 27.72433852 2.57154351
X -28.63469567 35.25139613 -36.84073726
X -46.33191084 36.84070878 -28.51900830
X -39.92899824 22.27768973 -10.89329551
X -20.72026044 39.41226317 -31.88521981
X -28.05734540 18.42035103 -21.78657935
X -34.46025800 62.48461003 -36.84074942
X -17.69721518 29.50122907 -21.78658430
X -23.16595542 60.40418362 -23.37590704
X -43.88621586 41.18915787 -46.93937101
X -40.86317060 62.97573722 -28.51901998
X -0.93417236 33.96563614 3.36619520
X -32.01456301 46.63580924 -27.72435821
X -3.37986735 54.95754571 -12.48261905
X -29.56886802 39.10873146 -33.47452862
X -14.31734783 26.43856094 3.36619855
X -42.37469323 33.96561774 -37.82298363
X 0.00000000 43.57312350 -41.98385276
X -47.26608320 43.26961275 3.36619104
X 1.51152263 39.90339195 -20.00968752
X -33.52608564 6.73240463 -36.04607006
X -20.14291017 14.25947983 -36.04607341
X -24.10012778 59.11841276 -7.52710160
X -34.46025800 32.37631932 -14.25951039
X -37.48330326 29.80475069 -42.77850109
X -35.97178063 38.61762523 5.14309454
X -20.72026044 37.82296139 -15.84882176
X -8.84860759 40.69804492 -23.37589824
X -35.39443036 21.78656175 -20.99192638
X -20.14291017 41.18916459 -31.88522061
X -44.82038822 23.86699903 -10.09864175
X -14.31734783 54.95753820 -29.31367087
X -33.52608564 55.44866875 -13.46486622
X -27.12317304 48.22511260 -40.20695343
X -28.05734540 20.99189869 -40.20694126
X -13.73999756 31.39406078 -40.20694590
X -39.92899824 46.63580251 -42.77850861
X -44.82038822 22.27769725 5.93775631
X -32.01456301 15.54525742 -36.84072846
X 5.46874024 31.88518461 -39.41229165
X -25.61165041 24.35810190 -56.24334011
X -15.25152019 45.35004667 6.73240047
X -38.41747561 31.09054173 -13.46485534
X -28.63469567 52.87710842 -23.37590368
X -35.97178063 38.61761772 -11.68795728
X -32.01456301 0.49111710 -14.25949615
X -9.78277995 28.51897390 -40.20694463
X -21.65443279 20.50079919 13.46483229
X -2.44569499 36.04604910 -40.20694798
X -11.87165285 16.33991374 -32.67986398
X -38.41747561 -4.16087457 -21.78656927
X -29.56886802 20.50078496 -18.42036991
X -29.56886802 5.44663792 -10.89328799
X -12.80582520 37.82295803 -23.37589696
X -29.56886802 62.48462427 -4.95554721
X -13.73999756 39.10873146 -33.47452862
X 3.02304526 48.71625067 -7.52709696
X -13.73999756 43.26959515 -36.04608637
X -38.41747561 -0.00000336 -7.52707520
X -20.14291017 36.04604910 -40.20694798
X -12.80582520 63.77039019 -31.88523070
X -29.56886802 43.26959851 -28.51901118
X -35.97178063 36.04604910 -40.20694798
X 1.51152263 15.54526414 -21.78657807
X -32.01456301 37.33182253 -50.30557964
X -35.97178063 38.61762188 -2.38398066
X -27.12317304 48.22512269 -17.62572782
X -14.31734783 44.06426572 -0.00001968
X -29.56886802 36.53717628 -31.88521853
X -12.80582520 57.03797468 -20.19728766
X -21.65443279 42.28736430 -0.00001889
X -47.26608320 32.37631675 -20.00968416
X -16.76304282 12.17905263 -24.35813245
X -59.13773605 59.60952986 -21.78659775
X -21.65443279 73.37791355 3.36617759
X -40.86317060 49.51089612 -27.72435949
X -13.73999756 29.80474733 -50.30557629
X -46.33191084 32.67985182 -10.89330016
X -56.69204106 34.45674988 -18.42037615
X -55.18051843 32.37632011 -12.48260897
X -8.84860759 23.07233598 -29.31365662
X -16.18569255 33.17097229 -17.62572110
X -16.76304282 23.07233854 -23.56348285
X -48.77760583 52.08245803 -14.25951919
X -9.78277995 50.30556412 2.57153343
X -15.25152019 18.42036191 2.57154767
X -23.16595542 26.13502507 -7.52708687
X -32.01456301 19.70614287 9.30396782
X -21.65443279 62.48462347 -6.73244863
X -14.31734783 29.01011197 -7.52708816
X -51.22330082 -0.00001008 -22.58122560
X -38.41747561 35.25139613 -36.84073726
X -32.01456301 28.02785679 -25.94744848
X -17.69721518 29.50123579 -6.73243390
X -8.84860759 40.69804333 -26.92970108
X -32.94873537 18.42035103 -21.78657935
X -25.61165041 78.82454810 -15.05418560
X -38.41747561 13.46483774 -8.32173568
X -28.05734540 41.18916459 -31.88522061
X -3.95721762 47.43046299 -29.31366750
X -8.84860759 29.80475741 -27.72435069
X -13.73999756 47.43047388 -4.95554049
X -13.73999756 44.85891533 -10.89330560
X -16.76304282 25.64390045 -10.09864255
X -3.95721762 5.44663455 -18.42036319
X -14.31734783 44.06425900 -15.05417008
X -20.14291017 38.61761357 -20.99193390
X -0.93417236 20.50079168 -3.36621952
X -15.82887046 48.71624058 -30.10832255
X -18.27456545 36.04605245 -32.67987278
X -50.28912846 31.39407087 -17.62572031
X -46.33191084 24.35810941 -39.41228829
X -30.50304038 52.87710763 -25.15280510
X -28.05734540 53.67176476 -19.21503920
X -8.84860759 18.91146477 -43.57315069
X -12.80582520 24.35812445 -5.75018466
X -46.33191084 37.82296475 -8.32174657
X -17.69721518 32.67983758 -42.77850237
X -38.41747561 17.62571230 13.46483359
X -59.13773605 21.78655503 -36.04607678
X -23.16595542 20.99190878 -17.62571567
X -23.16595542 11.68793296 -15.84881009
X -20.14291017 38.61761099 -26.74210768
X -55.18051843 32.37632347 -4.95553377
X -56.69204106 29.31363358 -28.51900494
X -32.01456301 11.38441054 3.36620528
X -10.36013022 38.61761772 -11.68795728
X -55.18051843 44.85890781 -27.72435741
X -4.89138997 32.67985182 -10.89330016
X -17.69721518 46.14468620 -26.74211104
X -28.99151776 23.86699231 -25.15279215
X -13.73999756 33.96562605 -19.21503040
X -15.25152019 31.88518461 -39.41229165
X -21.65443279 36.53718380 -15.05416672
X -37.48330326 23.07233854 -23.56348285
X 3.95721762 25.64390797 6.73240928
X -25.61165041 52.87710842 -23.37590368
X -36.90595299 44.06425564 -22.58124527
X -63.09495366 47.43045963 -36.84074270
X -11.29430258 33.17097644 -8.32174448
X -28.63469567 41.98382171 -25.94745471
X -29.56886802 54.16289195 -10.89330975
X 3.95721762 33.96562525 -20.99193182
X -24.10012778 46.63579914 -50.30558380
X -33.52608564 32.67984766 -20.19727677
X -44.82038822 33.17096892 -25.15279631
X -29.56886802 49.01977981 -11.68796193
X -30.50304038 35.25140205 -23.56348829
X -7.91443523 32.67983422 -50.30557757
X -17.69721518 37.82296139 -15.84882176
X -21.65443279 42.28735086 -30.10831969
X -20.14291017 16.83104430 -16.83105933
X -0.93417236 31.39406078 -40.20694590
X -16.76304282 33.96562190 -28.51900702
X -15.25152019 60.40418362 -23.37590704
X -22.23178306 30.59941790 -14.25950959
X -12.80582520 39.41225982 -39.41229501
X -12.80582520 17.62571230 13.46483359
X -3.95721762 29.80476829 -3.36622368
X -38.41747561 39.41226733 -22.58124320
X -2.44569499 49.51089355 -33.47453327
X -52.73482345 12.97371647 -3.36621615
X -42.37469323 18.91147229 -26.74209887
X -46.33191084 28.51898398 -17.62571903
X -7.33708496 25.15276911 -27.72434862
X -52.73482345 34.76027822 -24.35814254
X -35.97178063 62.97573049 -43.57317038
X -39.92899824 39.90338443 -36.84073935
X -28.05734540 -0.79466385 -20.99191630
X -28.05734540 31.88519212 -22.58123984
X -38.41747561 17.62569886 -16.64346721
X -33.52608564 39.41227820 1.77688381
X 11.87165285 16.33991711 -25.15278878
X -28.63469567 31.09053837 -20.99193054
X -35.97178063 41.18916795 -24.35814541
X 5.46874024 25.15276911 -27.72434862
X -2.44569499 49.51089948 -20.19728429
X -31.08039065 20.99191214 -10.09864046
X -44.82038822 61.68996379 -18.42038831
X -24.67747805 39.10873819 -18.42037823
X -0.93417236 25.64389036 -32.67986813
X -24.10012778 11.38438958 -43.57314733
X -29.56886802 40.69803740 -40.20695005
X -31.08039065 23.56345644 -36.04607757
X -15.25152019 27.72433852 2.57154351
X -23.16595542 14.25947647 -43.57314861
X -34.46025800 44.85890445 -35.25143261
X -17.69721518 37.82296475 -8.32174657
X -12.80582520 24.35810605 -46.93936349
X -6.40291260 15.54527838 10.09862415
X -26.54582277 12.17904590 -39.41228285
X -44.82038822 18.11682268 -15.84881296
X -11.29430258 28.02786688 -3.36622288
X -24.67747805 51.59133420 -15.05417344
X -63.09495366 40.69804077 -32.67987486
X -17.69721518 36.84071550 -13.46485790
X -51.22330082 59.60952986 -21.78659775
X -24.10012778 28.02786015 -18.42037328
X -35.97178063 56.24332587 -7.52710032
X -31.08039065 27.72432686 -23.56348492
X -48.77760583 29.31364031 -13.46485454
X -24.10012778 41.49270798 -4.16088337
X -35.97178063 45.35001820 -57.03800396
X -36.90595299 44.06425228 -30.10832048
X -12.80582520 37.82296059 -17.62572318
X 0.00000000 70.50280906 -36.04609854
X -22.23178306 39.90339116 -21.78658894
X -11.29430258 30.59942206 -4.95553297
X 15.82887046 35.25140621 -14.25951167
X -56.69204106 52.08245130 -29.31366958
X -15.25152019 7.52706512 -22.58122896
X -29.56886802 12.17904590 -39.41228285
X -23.16595542 64.56505739 -3.36623920
X -11.87165285 40.69804412 -25.15279966
X -25.61165041 11.87552092 -25.94744126
X -28.05734540 38.61761020 -28.51900910
X -6.40291260 41.49269293 -37.82298700
X -33.52608564 19.21500815 -15.84881345
X -34.46025800 62.48462347 -6.73244863
X -32.01456301 23.86699310 -23.37589073
X -15.25152019 52.08246138 -6.73244399
X -37.48330326 20.50078831 -10.89329471
X -10.36013022 36.04604830 -41.98384940
X -17.69721518 20.19724157 -46.14470716
X -54.24634608 39.41227405 -7.52709281
X -29.56886802 27.23321470 1.77688926
X -11.29430258 44.06426987 9.30395694
X -13.73999756 25.64388700 -40.20694334
X -56.69204106 25.15276574 -35.25142381
X -7.33708496 30.29588540 -17.62571982
X -29.56886802 65.05617787 -10.09866014
X -39.92899824 38.92113599 -40.20694927
X -23.16595542 16.83105181 -0.00000751
X -51.22330082 20.19725997 -4.95552833
X -32.01456301 29.01011532 -0.00001296
X -42.37469323 12.17905599 -16.83105726
X -6.40291260 33.17097309 -15.84881968
X -25.61165041 0.00000000 0.00000000
X -32.01456301 54.95753740 -31.09057228
X -17.69721518 13.46482943 -26.92968892
X -9.78277995 21.78655503 -36.04607678
X -10.36013022 38.61762444 3.36619312
X -28.63469567 37.82295724 -25.15279838
X -17.69721518 37.82294300 -57.03800060
X -33.52608564 35.25141036 -4.95553505
X -52.73482345 50.79666699 -43.57316494
X -3.95721762 29.80476157 -18.42037407
X -7.33708496 49.51091115 5.93774414
X -3.95721762 44.85890109 -42.77850781
X -0.93417236 31.39406415 -32.67987071
X -23.16595542 42.77846380 -53.67179244
X -25.61165041 43.57313022 -26.92970237
X -48.77760583 67.13660842 -14.25952591
X -17.69721518 20.19724909 -29.31365534
X -13.73999756 36.53717707 -30.10831711
X -25.61165041 36.84071294 -19.21503168
X -0.93417236 33.96562190 -28.51900702
X -42.37469323 49.01976556 -43.57316414
X -10.36013022 67.13661178 -6.73245072
X 5.46874024 27.72433437 -6.73243311
X -14.31734783 33.17097981 -0.79466929
X -20.72026044 35.25139533 -38.61763868
X -33.52608564 48.71623643 -39.41229917
X -27.12317304 22.27768221 -27.72434733
X -7.33708496 36.04605918 -17.62572238
X 0.00000000 50.30554237 -46.14472060
X -38.41747561 17.62570143 -10.89329344
X -37.48330326 12.17905599 -16.83105726
X -37.48330326 38.12649646 -6.73243776
X -34.46025800 40.69803740 -40.20695005
X -15.25152019 52.08245387 -23.56349580
X -32.01456301 23.86699231 -25.15279215
X -32.01456301 38.92114270 -25.15279887
X -35.97178063 3.36619727 -29.31364783
X -2.44569499 20.99190621 -23.37588944
X -29.56886802 43.26960524 -13.46486078
X -9.78277995 36.84071294 -19.21503168
X -15.25152019 16.83104509 -15.05415792
X 5.46874024 49.51090363 -10.89330767
X -21.65443279 28.21544475 -36.04607965
X -6.40291260 39.90338443 -36.84073935
X -29.56886802 18.91147150 -28.51900029
X -25.61165041 -4.16088129 -36.84071966
X -40.86317060 20.99190621 -23.37588944
X -33.52608564 36.84071294 -19.21503168
X -21.65443279 17.32217229 -6.73242846
X -26.54582277 40.69804077 -32.67987486
X -38.41747561 43.57313437 -17.62572575
X -17.69721518 44.55537946 -21.78659103
X -39.92899824 50.79667371 -28.51901453
X -51.22330082 24.35812702 -0.00001088
X -29.56886802 12.17905679 -15.05415584
X -15.25152019 18.42036527 10.09862286
X -20.72026044 17.62569727 -20.19727005
X -16.76304282 29.80475485 -33.47452447
X -2.44569499 42.77847053 -38.61764205
X -42.37469323 23.07234350 -12.48260481
X -29.56886802 32.37630923 -36.84073598
X -29.56886802 65.05616442 -40.20696094
X -39.92899824 11.38439294 -36.04607214
X -0.93417236 36.53719052 -0.00001631
X -7.33708496 41.18916459 -31.88522061
X -15.25152019 56.24332171 -16.83107694
X -21.65443279 18.91147150 -28.51900029
X -12.80582520 35.25140364 -20.00968545
X -32.01456301 19.70612526 -30.10830959
X -11.29430258 22.27768973 -10.89329551
X -17.69721518 24.35811357 -30.10831167
X -48.77760583 36.04605502 -26.92969901
X -48.77760583 14.25948319 -28.51899822
X -34.46025800 44.85889772 -50.30558301
X -20.14291017 31.88518877 -30.10831504
X -39.92899824 37.33183598 -20.19727885
X -33.52608564 16.03638125 -36.04607421
X -38.41747561 20.19724909 -29.31365534
X -21.65443279 33.96563021 -9.91105378
X -33.52608564 17.62569806 -18.42036863
X -34.46025800 25.64388700 -40.20694334
X 7.91443523 28.51897726 -32.67986942
X -32.01456301 26.43855501 -9.91105043
X -30.50304038 10.89328255 -6.73242559
X -23.16595542 30.29588619 -15.84881840
X -9.78277995 57.03798636 5.93774078
X -25.61165041 74.66367354 -36.84075487
X -47.84343347 34.76028910 -0.00001552
X -13.73999756 47.43046299 -29.31366750
X -8.84860759 18.91147229 -26.74209887
X -28.05734540 30.29588619 -15.84881840
X -32.94873537 42.77847805 -21.78659022
X -39.92899824 38.92114943 -10.09864847
X 7.91443523 35.25139613 -36.84073726
X -11.29430258 28.02786351 -10.89329808
X -25.61165041 46.14468460 -30.29591388
X -37.48330326 29.80475485 -33.47452447
X -6.40291260 39.90339116 -21.78658894
X -39.92899824 26.43853998 -43.57315406
X -39.92899824 22.27768637 -18.42037072
X -42.37469323 29.80476493 -10.89329887
X -12.80582520 35.25139613 -36.84073726
X -19.20873781 33.17096557 -32.67987150
X -16.18569255 54.95754571 -12.48261905
X -25.61165041 37.82295052 -40.20694878
X -24.67747805 23.07233598 -29.31365662
X -40.86317060 3.36619391 -36.84072302
X -16.76304282 18.91146813 -36.04607550
X -39.92899824 37.33184349 -3.36622704
X -7.33708496 25.15276574 -35.25142381
X -7.33708496 40.20692702 -10.89330351
X -42.37469323 65.05617114 -25.15281055
X -52.73482345 41.49269709 -28.51901038
X -7.91443523 59.60952314 -36.84074815
X -32.01456301 22.27768973 -10.89329551
X -24.10012778 35.74251659 -43.57315821
X -8.84860759 27.23320718 -15.05416256
X -38.41747561 57.03797468 -20.19728766
X -10.36013022 41.18917883 -0.00001840
X -20.14291017 22.58122223 -7.52708529
X -35.97178063 36.04605918 -17.62572238
X -6.40291260 61.68996714 -10.89331311
X -23.16595542 38.61762860 12.67016973
X -44.82038822 46.63580666 -33.47453199
X 5.46874024 25.15276239 -42.77849901
X -15.25152019 38.61759933 -52.87713611
X -16.76304282 23.07233261 -36.84073183
X -28.99151776 33.17096557 -32.67987150
X -54.24634608 39.41226397 -30.10831839
X -13.73999756 43.26959931 -26.74210976
X -7.33708496 31.88518877 -30.10831504
X -17.69721518 63.77040107 -7.52710368
X -21.65443279 53.18064685 -6.73244448
X -24.10012778 15.54525998 -31.09055468
X -36.90595299 44.06426572 -0.00001968
X -29.56886802 47.43047388 -4.95554049
X -25.61165041 41.98380332 -67.13663355
X -16.76304282 47.43046715 -20.00969089
X -46.33191084 35.25139197 -46.14471389
X -8.84860759 60.89530330 -31.88522941
X -32.01456301 64.26151065 -38.61765164
X -52.73482345 12.97370304 -33.47451695
X -24.67747805 23.07233182 -38.61763325
X -38.41747561 25.94743295 -6.73243232
X -24.67747805 27.23319630 -39.41228958
X -40.86317060 40.20691614 -35.25143054
X -51.22330082 50.30554573 -38.61764540
X -28.63469567 28.51898062 -25.15279422
X -6.40291260 24.84924155 -20.00968081
X -31.08039065 41.18916874 -22.58124399
X -33.52608564 13.46482686 -32.67986271
X -7.33708496 49.51090363 -10.89330767
X -10.36013022 3.36620063 -21.78657263
X -39.35164797 16.33991711 -25.15278878
X -35.97178063 36.04605166 -34.45677420
X -3.37986735 46.63582011 -3.36623119
X -24.10012778 45.65355821 -36.84074191
X -4.89138997 57.03798220 -3.36623583
X -27.12317304 37.33182589 -42.77850445
X -8.84860759 65.05616442 -40.20696094
X -32.94873537 56.24331578 -30.10832591
X -34.46025800 18.91148238 -4.16087328
X -23.16595542 14.25948655 -20.99192302
X -43.88621586 42.77847883 -20.00968881
X -6.40291260 37.33183261 -27.72435405
X -8.84860759 32.37632268 -6.73243518
X -7.33708496 14.25948655 -20.99192302
X -23.16595542 52.08244378 -46.14472140
X -21.65443279 38.12650398 10.09861406
X -25.61165041 20.19725917 -6.73242975
X -9.78277995 40.39450490 -43.57316029
X -34.46025800 50.00201402 -40.20695421
X -43.88621586 34.45674573 -27.72435277
X -28.05734540 12.67017389 -29.31365198
X -35.03760827 15.54526335 -23.56347949
X -35.97178063 38.61761436 -19.21503248
X -16.76304282 12.17905599 -16.83105726
X -28.05734540 3.36619727 -29.31364783
X -30.50304038 20.19724573 -36.84073055
X -35.03760827 37.33183677 -18.42037743
X -36.90595299 48.22511260 -40.20695343
X -41.44052087 17.62569727 -20.19727005
X -43.88621586 34.45674315 -33.47452655
X -34.46025800 18.91147150 -28.51900029
X -24.10012778 35.74253419 -4.16088080
X -43.30886559 10.89327919 -14.25950079
X -38.41747561 41.98383596 5.93774751
X -4.89138997 21.78655503 -36.04607678
X -28.05734540 5.93774830 -40.20693453
X -27.12317304 39.90340540 10.09861326
X -26.54582277 47.43046715 -20.00969089
X -12.80582520 39.41225229 -56.24334683
X -32.01456301 11.38438958 -43.57314733
X -40.86317060 25.15277326 -18.42037200
X -37.48330326 58.32374970 -26.74211648
X -17.69721518 25.94743039 -12.48260609
X -15.25152019 64.56505739 -3.36623920
X -15.25152019 23.56345644 -36.04607757
X -16.76304282 28.21545563 -11.68795264
X -31.08039065 41.18916459 -31.88522061
X -28.05734540 67.13661178 -6.73245072
X -42.37469323 23.07233182 -38.61763325
X -21.65443279 54.16288522 -25.94746015
X -29.56886802 44.85891533 -10.89330560
X -35.03760827 50.79668123 -11.68796272
X -40.86317060 30.29589627 6.73240719
X -42.37469323 38.12648223 -38.61763997
X -47.26608320 29.80476829 -3.36622368
X -26.54582277 29.80475741 -27.72435069
X -42.37469323 29.80476909 -1.58932226
X -15.82887046 48.71625067 -7.52709696
X -9.78277995 24.35810941 -39.41228829
X -25.61165041 17.62570222 -9.11639202
X -33.52608564 37.82297148 6.73240383
X -25.61165041 -4.16087457 -21.78656927
X -42.37469323 23.07234013 -20.00968000
X 0.00000000 17.62570143 -10.89329344
X -25.61165041 57.03797547 -18.42038624
X 9.42595786 33.17097229 -17.62572110
X -19.20873781 30.59941118 -29.31365999
X -31.08039065 25.15276654 -33.47452239
X -29.56886802 36.53718716 -7.52709152
X -56.69204106 41.18916874 -22.58124399
X -38.41747561 24.35812702 -0.00001088
X -29.56886802 42.28734670 -39.41229630
X -31.08039065 34.45674908 -20.19727757
X -15.82887046 48.71624730 -15.05417216
X -17.69721518 32.67984174 -33.47452576
X -37.48330326 8.01817806 -46.14470172
X -44.82038822 72.58324634 -25.15281390
X -43.88621586 22.58121887 -15.05416048
X -32.01456301 39.90339036 -23.56349036
X -38.41747561 52.87711179 -15.84882849
X 9.42595786 19.70612111 -39.41228621
X -12.80582520 16.03639885 3.36620320
X -46.33191084 35.25141373 2.57154015
X -23.16595542 40.20692287 -20.19728013
X -42.37469323 65.05617450 -17.62573534
X -23.16595542 40.20692366 -18.42037872
X -20.14291017 10.09861870 -27.72434189
X -43.88621586 47.92159018 -20.99193806
X -18.27456545 36.04605918 -17.62572238
X -47.26608320 43.26960266 -19.21503456
X -23.16595542 25.15278414 5.93775502
X -0.93417236 40.69805501 -0.79467265
X -28.05734540 25.15277742 -9.11639538
X -47.84343347 37.33184349 -3.36622704
X -20.72026044 26.92967804 -10.89329759
X -28.63469567 24.35811278 -31.88521309
X -23.16595542 23.56347405 3.36619984
X -22.58860515 44.55537274 -36.84074142
X -17.69721518 31.09054252 -11.68795392
X -28.05734540 3.36620735 -6.73242223
X -25.61165041 -0.00001345 -30.10830080
X -55.18051843 43.26960939 -4.16088416
X -41.44052087 24.35811949 -16.83106269
X -33.52608564 20.19725581 -14.25950495
X -21.65443279 56.73444218 -23.56349788
X -37.48330326 44.85890524 -33.47453119
X -14.31734783 15.54526750 -14.25950287
X -23.16595542 31.88518461 -39.41229165
X -28.05734540 30.29588203 -25.15279501
X -7.33708496 46.93933916 -30.10832176
X -19.20873781 45.65355405 -46.14471852
X -27.12317304 37.33184014 -10.89330224
X -20.72026044 17.62569054 -35.25142045
X -29.56886802 69.21703899 -18.42039167
X -23.16595542 52.08245466 -21.78659438
X -21.65443279 40.69803325 -49.51092668
X -25.61165041 17.62570558 -1.58931682
X -39.92899824 26.43855422 -11.68795184
X -24.67747805 12.17905599 -16.83105726
X -25.61165041 52.87711100 -17.62572991
X -21.65443279 33.96563356 -2.38397858
X -28.05734540 60.40419034 -8.32175665
X -44.82038822 30.59941454 -21.78658479
X -29.56886802 12.17904255 -46.93935805
X -17.69721518 51.28779081 -42.77851068
X -15.25152019 25.15277663 -10.89329679
X -15.25152019 49.51090443 -9.11640625
X -35.97178063 49.51089612 -27.72435949
X -11.29430258 52.38599388 -3.36623376
X -11.29430258 50.79668795 3.36618767
X -27.12317304 23.86699310 -23.37589073
X 9.42595786 30.59941790 -14.25950959
X -43.88621586 27.72431341 -53.67178572
X -44.82038822 19.70612862 -22.58123440
X -47.84343347 23.86699903 -10.09864175
X -16.18569255 26.43854670 -28.51900366
X -6.40291260 57.52908922 -40.20695758
X -2.44569499 31.88518797 -31.88521646
X -24.67747805 40.69803740 -40.20695005
X -36.90595299 23.86698559 -40.20694254
X -30.50304038 28.51898814 -8.32174241
X -29.56886802 29.80475485 -33.47452447
X -33.52608564 13.46483694 -10.09863710
X 7.91443523 46.14467869 -43.57316285
X -17.69721518 32.67986271 13.46482686
X -17.69721518 35.25140285 -21.78658687
X -40.86317060 14.25948734 -19.21502160
X -28.05734540 56.24332250 -15.05417551
X -20.72026044 41.98383596 5.93774751
X -15.25152019 25.15275902 -50.30557420
X -23.16595542 58.81487273 -27.72436364
X -4.89138997 35.25140205 -23.56348829
X -47.26608320 58.32374891 -28.51901790
X -24.10012778 19.70611775 -46.93936141
X -28.05734540 42.77846717 -46.14471725
X -2.44569499 30.29589627 6.73240719
X -24.10012778 44.06425980 -13.27726866
X -16.76304282 16.33992384 -10.09863839
X -19.20873781 -6.24131521 -40.20692910
X -16.18569255 29.01009436 -46.93936557
X -11.29430258 61.68996042 -25.94746351
X -24.10012778 18.11682189 -17.62571438
X -25.61165041 31.09055004 5.14309790
X -14.31734783 50.79667371 -28.51901453
X -28.05734540 27.72432686 -23.56348492
X -16.76304282 38.12648638 -29.31366335
X -25.61165041 63.77039691 -16.83108029
X -39.92899824 8.81284191 -25.15278543
X -25.61165041 26.92968556 5.93775423
X -48.77760583 7.52707184 -7.52707856
X -29.56886802 23.07234606 -6.73243103
X -25.61165041 24.35811198 -33.66211451
X -59.13773605 31.09053580 -26.74210431
X -29.56886802 43.26959931 -26.74210976
X -35.97178063 20.99191966 6.73241135
X -54.24634608 44.55537946 -21.78659103
X -26.54582277 23.07232846 -46.14470845
X -33.52608564 41.98382428 -20.19728093
X -27.12317304 38.92114270 -25.15279887
X -12.80582520 2.57154767 -18.42036191
X -41.44052087 32.67984510 -25.94745055
X -35.03760827 23.86698559 -40.20694254
X -10.36013022 23.56346733 -11.68795056
X -35.97178063 60.40419371 -0.79468145
X -19.20873781 23.86698559 -40.20694254
X 1.51152263 33.17096892 -25.15279631
X -29.56886802 27.23320045 -30.10831296
X -33.52608564 46.14468541 -28.51901246
X -24.10012778 8.81284191 -25.15278543
X -15.25152019 57.83262172 -36.84074735
X -51.22330082 26.92968892 13.46482943
X -37.48330326 43.26960524 -13.46486078
X 11.87165285 36.53719052 -0.00001631
X -36.90595299 30.59941454 -21.78658479
X -56.69204106 20.99190878 -17.62571567
X -35.97178063 10.09862622 -10.89329007
X -0.93417236 47.43045963 -36.84074270
X -28.05734540 71.29747626 -7.52710704
X -2.44569499 27.72434189 10.09861870
X -23.16595542 16.83103837 -30.10830831
X -25.61165041 58.62728141 -25.15280767
X -16.18569255 29.01010781 -16.83106477
X -30.50304038 57.03797547 -18.42038624
X -32.01456301 26.43855422 -11.68795184
X -10.36013022 25.15277246 -20.19727342
X -42.37469323 51.59133083 -22.58124864
X -36.90595299 46.63582011 -3.36623119
X -24.10012778 37.33183004 -33.47452783
X -16.76304282 29.80476909 -1.58932226
X -33.52608564 44.55536523 -53.67179323
X 0.00000000 70.50281578 -20.99194814
X -24.10012778 29.01010187 -30.10831375
X -24.67747805 38.12649646 -6.73243776
X -11.29430258 39.90339036 -23.56349036
X -15.25152019 52.08244378 -46.14472140
X -27.12317304 15.54527087 -6.73242767
X -6.40291260 18.11682268 -15.84881296
X -39.92899824 26.43853918 -45.35005547
X -6.40291260 37.33183341 -25.94745264
X -14.31734783 19.70612782 -24.35813582
X 1.51152263 35.74253419 -4.16088080
X -40.86317060 3.36620063 -21.78657263
X -7.91443523 21.78655503 -36.04607678
X -35.03760827 44.06425228 -30.10832048
X -32.01456301 61.68995707 -33.47453871
X -25.61165041 41.98383932 13.46482270
X -47.26608320 18.91147565 -19.21502368
X -25.61165041 22.76881772 -0.79466464
X -3.37986735 19.70612447 -31.88521101
X -46.33191084 15.05414704 -7.52708192
X -37.48330326 43.26961275 3.36619104
X 9.42595786 37.33183004 -33.47452783
X -16.76304282 33.96562941 -11.68795520
X -39.35164797 16.33991039 -40.20693918
X -41.44052087 50.30556076 -4.95554178
X -4.89138997 48.71623643 -39.41229917
X -2.44569499 62.97573049 -43.57317038
X -15.25152019 16.83104430 -16.83105933
X -17.69721518 41.98381084 -50.30558173
X -26.54582277 32.37631595 -21.78658558
X -33.52608564 28.51897390 -40.20694463
X -23.16595542 49.51090028 -18.42038287
X -35.97178063 34.45674988 -18.42037615
X -20.72026044 52.87711179 -15.84882849
X -51.22330082 59.60953322 -14.25952254
X -9.78277995 30.10829407 -15.05416384
X -54.24634608 39.41227742 -0.00001760
X -21.65443279 47.43047723 2.57153471
X -29.56886802 16.33992799 -0.79466177
X -38.41747561 21.78656175 -20.99192638
X -13.73999756 34.94786698 -32.67987229
X -23.16595542 40.20691950 -27.72435534
X -15.25152019 27.72433180 -12.48260688
X -25.61165041 72.09212924 -10.89331776
X -46.33191084 32.67984094 -35.25142717
X -38.41747561 50.30555660 -14.25951839
X -6.40291260 8.81285616 6.73241679
X -25.61165041 22.76880684 -25.15279166
X -46.33191084 48.71624058 -30.10832255
X -3.37986735 35.74253004 -13.46485742
X -52.73482345 12.97371311 -10.89329136
X -7.33708496 16.83103422 -39.41228493
X -39.92899824 19.70612782 -24.35813582
X -25.61165041 35.25138861 -53.67178908
X -29.56886802 18.91147229 -26.74209887
X -21.65443279 54.16288106 -35.25143677
X 7.91443523 28.51898062 -25.15279422
X -37.48330326 42.28735758 -15.05416928
X -13.73999756 38.12649646 -6.73243776
X -30.50304038 17.62568382 -50.30557085
X -14.31734783 50.79666699 -43.57316494
X -19.20873781 49.81442526 -31.88522446
X -12.80582520 63.77039434 -22.58125408
X -32.01456301 26.43856094 3.36619855
X -19.20873781 22.27769389 -1.58931889
X -16.76304282 58.32375227 -20.99194270
X -28.05734540 53.67176061 -28.51901582
X -44.82038822 48.22511853 -26.92970444
X -16.18569255 28.02785679 -25.94744848
X -21.65443279 50.00200650 -57.03800603
X -36.90595299 35.74252747 -19.21503119
X -34.46025800 69.21703899 -18.42039167
X -24.67747805 36.53717628 -31.88521853
X -17.69721518 37.82295387 -32.67987358
X -37.48330326 28.21545148 -20.99192926
X -28.05734540 14.25948655 -20.99192302
X -25.61165041 21.78657342 5.14310205
X -16.18569255 15.54525662 -38.61762988
X -32.01456301 48.22510509 -57.03800524
X -29.56886802 46.44822463 -10.09865184
X -17.69721518 52.87711436 -10.09865470
X -11.29430258 15.54524990 -53.67178028
X 3.95721762 54.16288858 -18.42038495
X -46.33191084 55.44866538 -20.99194141
X -27.12317304 37.33184349 -3.36622704
X -40.86317060 36.04605502 -26.92969901
X -30.50304038 39.41226733 -22.58124320
X -29.56886802 31.39406415 -32.67987071
X -38.41747561 37.82296475 -8.32174657
X -20.72026044 57.03798220 -3.36623583
X -39.92899824 44.06425228 -30.10832048
X -42.37469323 39.10873819 -18.42037823
X -10.36013022 52.08245466 -21.78659438
X -16.76304282 12.17904590 -39.41228285
X -10.36013022 52.08246138 -6.73244399
X -34.46025800 29.80475069 -42.77850109
X -33.52608564 22.76881020 -17.62571646
X -46.33191084 41.98382171 -25.94745471
X -12.80582520 31.09053165 -36.04608093
X -26.54582277 27.23320639 -16.83106398
X -51.22330082 31.09053580 -26.74210431
X -25.61165041 63.77038347 -46.93938109
X -37.48330326 44.85891948 -1.58932898
X -32.01456301 33.17096813 -26.92969772
X -32.01456301 44.06426987 9.30395694
X -38.41747561 43.57311677 -57.03800316
X -11.29430258 35.74252332 -28.51900781
X -19.20873781 63.27927644 -10.09865935
X -39.92899824 44.06424476 -46.93937229
X -42.37469323 20.50078159 -25.94744512
X -18.27456545 41.18916874 -22.58124399
X -50.28912846 33.96562941 -11.68795520
X -10.36013022 49.51089276 -35.25143469
X -25.61165041 35.25140205 -23.56348829
X -47.84343347 46.63580666 -33.47453199
X -30.50304038 21.78656175 -20.99192638
X -47.26608320 40.69804077 -32.67987486
X -25.61165041 59.60952570 -31.09057437
X -39.92899824 44.06424812 -39.41229709
X -28.05734540 49.51089691 -25.94745807
X -19.20873781 29.01011948 9.30396366
X -46.33191084 31.09054925 3.36619648
X -25.61165041 37.82294972 -41.98385020
X -23.16595542 67.13660506 -21.78660111
X -19.20873781 33.17097644 -8.32174448
X 0.00000000 28.51897726 -32.67986942
X -19.20873781 45.65355742 -38.61764333
X -21.65443279 29.80473981 -67.13662810
X -8.84860759 18.91146813 -36.04607550
X -21.65443279 46.44821118 -40.20695263
X -24.10012778 48.22512012 -23.37590161
X -41.44052087 44.55537946 -21.78659103
X -23.16595542 60.40419034 -8.32175665
X -4.89138997 46.14468876 -20.99193726
X -46.33191084 48.71625067 -7.52709696
X -31.08039065 29.31363438 -26.74210352
X -16.18569255 37.33184349 -3.36622704
X -21.65443279 36.53718716 -7.52709152
X -15.25152019 31.88518046 -48.71626827
X -17.69721518 41.98383260 -1.58932769
X -27.12317304 46.63581675 -10.89330639
X -23.16595542 31.88518382 -41.18919307
X -6.40291260 29.01011276 -5.75018674
X -31.08039065 29.31362686 -43.57315533
X -21.65443279 33.96562269 -26.74210560
X -39.92899824 59.11840940 -15.05417680
X -4.89138997 17.62568382 -50.30557085
X -15.82887046 35.25140621 -14.25951167
X -52.73482345 39.90339868 -4.95553713
X -12.80582520 10.89328335 -4.95552417
X -8.84860759 40.69803325 -49.51092668
X -40.86317060 38.61761020 -28.51900910
X -30.50304038 35.25140701 -12.48261025
X -24.10012778 57.52909258 -32.67988238
X -51.22330082 39.41225982 -39.41229501
X -35.97178063 26.13501835 -22.58123727
X -20.14291017 40.20692029 -25.94745392
X -23.16595542 14.25948319 -28.51899822
X -12.80582520 47.73398462 -50.30558429
X -46.33191084 46.14467869 -43.57316285
X -56.69204106 36.04605918 -17.62572238
X -19.20873781 12.97371647 -3.36621615
X -28.05734540 40.20692029 -25.94745392
X -11.29430258 54.95754492 -14.25952047
X -42.37469323 21.48304013 -0.00000959
X -32.01456301 29.01010524 -22.58123856
X -9.78277995 31.09054173 -13.46485534
X 15.82887046 41.98382171 -25.94745471
X -28.05734540 14.25948991 -13.46484783
X -32.01456301 33.17097565 -10.09864590
X -44.82038822 15.54525742 -36.84072846
X 0.00000000 39.41226317 -31.88521981
X -14.31734783 46.63581003 -25.94745679
X -20.14291017 25.15276654 -33.47452239
X -25.61165041 32.67983758 -42.77850237
X -24.10012778 52.38599388 -3.36623376
X -33.52608564 44.55537274 -36.84074142
X -36.90595299 39.90340540 10.09861326
X -27.12317304 48.22513357 6.73239918
X -13.73999756 39.10873740 -20.19727964
X -25.61165041 6.73241887 -4.16086784
X -32.01456301 29.01011948 9.30396366
X -7.33708496 33.47449470 -36.84073647
X -21.65443279 50.00200987 -49.51093083
X -44.82038822 18.11682941 -0.79466256
X -10.36013022 36.04605502 -26.92969901
X -13.73999756 33.96562862 -13.46485663
X -60.64925868 39.90338443 -36.84073935
X 3.95721762 23.07234270 -14.25950623
X -12.80582520 0.00000000 0.00000000
X -24.67747805 38.12648638 -29.31366335
X -46.33191084 59.60953322 -14.25952254
X -15.25152019 57.83262845 -21.78659695
X -32.01456301 41.49269789 -26.74210896
X -40.86317060 31.88518797 -31.88521646
X -32.94873537 34.45675660 -3.36622575
X -21.65443279 24.66165615 -4.16087585
X -16.76304282 33.96562525 -20.99193182
X -23.16595542 38.61760941 -30.29591051
X -23.16595542 14.25949407 -4.16087120
X -6.40291260 65.85082075 -36.04609645
X -35.97178063 33.47449807 -29.31366127
X -38.41747561 48.71624315 -24.35814878
X -40.86317060 16.83104846 -7.52708271
X -10.36013022 53.67175388 -43.57316622
X -48.77760583 14.25949743 3.36620400
X -21.65443279 51.59134844 16.83102877
X -4.89138997 46.14467869 -43.57316285
X -23.16595542 22.58121215 -30.10831088
X -16.18569255 42.47494554 -25.15280046
X -29.56886802 62.48462763 2.57152799
X -25.61165041 9.30395565 -46.93935677
X -28.05734540 40.20691694 -33.47452911
X -4.89138997 50.30555660 -14.25951839
X -32.01456301 64.26150393 -53.67180204
X -6.40291260 19.70612111 -39.41228621
X -15.25152019 7.52706847 -15.05415376
X -4.89138997 50.30555325 -21.78659359
X -7.33708496 52.08245130 -29.31366958
X -12.80582520 9.30396654 -22.58122975
X -12.80582520 31.09054173 -13.46485534
X -24.10012778 38.92113599 -40.20694927
X -12.80582520 47.73398797 -42.77850909
X -38.41747561 28.51897309 -41.98384604
X -21.65443279 55.75220125 -10.09865599
X -32.01456301 33.17096476 -34.45677292
X -24.10012778 37.33183756 -16.64347602
X -24.10012778 39.90338364 -38.61764077
X -35.97178063 23.56346060 -26.74210096
X -33.52608564 13.46482270 -41.98383932
X -46.33191084 50.30554653 -36.84074399
X -23.16595542 60.40418955 -10.09865807
X -50.28912846 51.59133083 -22.58124864
X -19.20873781 54.95753403 -38.61764749
X -13.73999756 33.96563614 3.36619520
X -19.20873781 50.79667292 -30.29591595
X -30.50304038 31.09054173 -13.46485534
X -10.36013022 42.77848477 -6.73243983
X -37.48330326 23.07233261 -36.84073183
X -11.29430258 22.27768221 -27.72434733
X -55.18051843 16.33992047 -17.62571358
X -37.48330326 38.12649725 -4.95553634
X -31.08039065 41.18916795 -24.35814541
X -47.84343347 28.02785679 -25.94744848
X -30.50304038 37.82296396 -10.09864798
X -29.56886802 66.64548123 -22.58125536
X -35.97178063 23.56345981 -28.51900238
X -29.56886802 56.73443545 -38.61764828
X -47.26608320 47.43046635 -21.78659231
X -24.67747805 12.17904590 -39.41228285
X -12.80582520 32.67984846 -18.42037536
X -29.56886802 14.75060029 -42.77849437
X -48.77760583 46.93933837 -31.88522318
X -28.05734540 3.36620400 -14.25949743
X -40.86317060 42.77846380 -53.67179244
X -25.61165041 -4.16086784 -6.73241887
X -15.25152019 52.08244793 -36.84074478
X -37.48330326 23.07233934 -21.78658142
X -28.05734540 29.31362686 -43.57315533
X -2.44569499 20.99190878 -17.62571567
X -33.52608564 24.35809854 -63.77041531
X -27.12317304 54.95754907 -4.95554385
X -33.52608564 36.84070878 -28.51900830
X -19.20873781 33.17097565 -10.09864590
X -13.73999756 23.07232510 -53.67178364
X -21.65443279 42.28736094 -7.52709408
X -12.80582520 54.46641693 -24.35815134
X -27.12317304 42.47493882 -40.20695086
X -44.82038822 37.33184349 -3.36622704
X -31.08039065 38.61762444 3.36619312
X -16.76304282 69.21703226 -33.47454207
X -21.65443279 38.12649725 -4.95553634
X -20.14291017 22.58121215 -30.10831088
X -6.40291260 8.81284943 -8.32173361
X 5.46874024 31.88520222 -0.00001424
X -2.44569499 3.36620735 -6.73242223
X -39.92899824 18.11681516 -32.67986478
X -29.56886802 53.18064685 -6.73244448
X -15.25152019 -0.79466049 -13.46484110
X -24.10012778 46.63581675 -10.89330639
X -27.12317304 33.17097309 -15.84881968
X -19.20873781 37.33185101 13.46482478
X -34.46025800 12.17906014 -7.52708064
X -9.78277995 57.03797627 -16.64348482
X -15.25152019 23.56346733 -11.68795056
X -46.33191084 21.78656175 -20.99192638
X -22.58860515 25.94742959 -14.25950751
X -25.61165041 50.30555325 -21.78659359
X -25.61165041 26.92966796 -33.47452318
X -22.23178306 23.86698895 -32.67986735
X -12.80582520 26.92967132 -25.94744799
X -37.48330326 39.10873740 -20.19727964
X -28.05734540 52.08245387 -23.56349580
X -15.25152019 34.45675660 -3.36622575
X -33.52608564 30.10829743 -7.52708864
X -16.76304282 14.75061789 -3.36621695
X -38.41747561 0.00000000 0.00000000
X -23.16595542 18.42034431 -36.84072975
X -10.36013022 42.77847053 -38.61764205
X -15.25152019 36.04606334 -8.32174577
X -23.16595542 30.29588955 -8.32174320
X -20.14291017 49.51090107 -16.64348145
X -11.87165285 23.07234270 -14.25950623
X -17.69721518 19.21501152 -8.32173825
X -50.28912846 25.64389373 -25.15279294
X -30.50304038 43.57312429 -40.20695135
X -36.90595299 41.49269374 -36.04608558
X -25.61165041 13.46483438 -15.84881088
X -4.89138997 39.41226397 -30.10831839
X -24.10012778 24.84924076 -21.78658222
X -10.36013022 38.61761099 -26.74210768
X -32.01456301 15.54525662 -38.61762988
X -42.37469323 38.12649646 -6.73243776
X -24.10012778 34.76028159 -16.83106733
X -21.65443279 69.21704571 -3.36624128
X -41.44052087 35.25139613 -36.84073726
X -17.69721518 47.73400221 -10.89330688
X -16.18569255 35.74252332 -28.51900781
X -38.41747561 35.25140701 -12.48261025
X -21.65443279 44.85891276 -16.64347937
X -30.50304038 28.51898142 -23.37589280
X -24.10012778 61.68997051 -3.36623792
X -17.69721518 2.57153678 -42.77848893
X -29.56886802 40.69805084 -10.09864927
X -11.29430258 28.02785679 -25.94744848
X -56.69204106 45.35003323 -23.37590032
X -42.37469323 43.26961275 3.36619104
X -19.20873781 18.11681516 -32.67986478
X -20.72026044 41.98382844 -10.89330432
X -35.97178063 42.77848893 2.57153678
X -13.73999756 44.85891276 -16.64347937
X -21.65443279 31.39406078 -40.20694590
X -39.92899824 23.86698895 -32.67986735
X -19.20873781 33.17097981 -0.79466929
X -48.77760583 38.61761772 -11.68795728
X -11.29430258 39.90337692 -53.67179116
X -21.65443279 73.37790683 -11.68797280
X -46.33191084 17.62569390 -27.72434525
X -8.84860759 8.01819567 -6.73242431
X -19.20873781 39.90339788 -6.73243855
X -15.25152019 49.51089276 -35.25143469
X -23.16595542 3.36619727 -29.31364783
X -54.24634608 37.82295724 -25.15279838
X -46.33191084 37.82296139 -15.84882176
X -33.52608564 46.14469371 -9.91105923
X -32.01456301 50.79666284 -52.87714156
X -19.20873781 29.01011197 -7.52708816
X -25.61165041 19.21501152 -8.32173825
X -19.20873781 48.22511260 -40.20695343
X 1.51152263 22.27768637 -18.42037072
X -56.69204106 42.77848141 -14.25951503
X -19.20873781 30.59941454 -21.78658479
X 3.95721762 5.44663119 -25.94743840
X -46.33191084 55.44866875 -13.46486622
X -11.29430258 50.79667451 -26.74211311
X -24.10012778 53.36823146 -24.35815085
X -25.61165041 48.71623979 -31.88522397
X -11.87165285 47.43046635 -21.78659231
X -44.82038822 18.11681932 -23.37588816
X -35.03760827 44.06425900 -15.05417008
X -12.80582520 21.78656590 -11.68794976
X -46.33191084 25.94741951 -36.84073311
X -34.46025800 27.23320382 -22.58123776
X -33.52608564 10.89327919 -14.25950079
X -28.05734540 23.56346733 -11.68795056
X -63.09495366 16.33991711 -25.15278878
X -2.44569499 60.40418955 -10.09865807
X -40.86317060 14.25948991 -13.46484783
X -30.50304038 59.60952650 -29.31367295
X -42.37469323 21.48303340 -15.05415999
X -28.05734540 29.31363358 -28.51900494
X -20.72026044 6.73241135 -20.99191966
X -44.82038822 41.49270382 -13.46485998
X -10.36013022 7.52706512 -22.58122896
X -42.37469323 54.16288779 -20.19728636
X -35.97178063 45.35002828 -34.45677835
X 5.46874024 41.18916538 -30.10831919
X -24.10012778 44.06426987 9.30395694
X -10.36013022 49.51090028 -18.42038287
X -27.12317304 42.47495226 -10.09865006
X -8.84860759 18.91148238 -4.16087328
X 1.51152263 44.06426572 -0.00001968
X 7.91443523 46.14468204 -36.04608766
X -39.92899824 12.97370304 -33.47451695
X -28.05734540 37.02831099 -6.73243727
X -43.30886559 28.51897726 -32.67986942
X -28.99151776 50.79667451 -26.74211311
X -16.76304282 50.00202746 -10.09865342
X -44.82038822 61.68997051 -3.36623792
X -59.13773605 21.78656511 -13.46485118
X -56.69204106 31.88519885 -7.52708944
X -16.18569255 35.74251659 -43.57315821
X -24.67747805 50.00202074 -25.15280382
X -47.84343347 35.74251659 -43.57315821
X -24.10012778 42.47495226 -10.09865006
X -37.48330326 18.91146813 -36.04607550
X -7.33708496 31.88519212 -22.58123984
X -12.80582520 66.34193785 -50.30559260
X -29.56886802 12.17905263 -24.35813245
X -48.77760583 46.93933165 -46.93937357
X -20.14291017 10.09861198 -42.77849228
X -33.52608564 50.30554653 -36.84074399
X -33.52608564 55.44866538 -20.99194141
X -39.92899824 4.65197407 -31.88520429
X -43.88621586 41.18916122 -39.41229581
X -36.90595299 8.81283855 -32.67986062
X -15.25152019 16.83103085 -46.93936012
X -6.40291260 22.27768637 -18.42037072
X -59.13773605 10.89327919 -14.25950079
X -16.18569255 34.76027902 -22.58124112
X 0.00000000 35.25140285 -21.78658687
X -32.01456301 13.95595484 -22.58123183
X -47.26608320 29.80475485 -33.47452447
X -28.05734540 52.08244042 -53.67179660
X 1.51152263 37.33183004 -33.47452783
X -42.37469323 38.12647550 -53.67179037
X -12.80582520 25.94742287 -29.31365792
X -23.16595542 22.58122223 -7.52708529
X -33.52608564 28.51899149 -0.79466721
X -13.73999756 25.64389709 -17.62571774
X -43.88621586 31.88518877 -30.10831504
X -34.46025800 58.32374218 -43.57316829
X -12.80582520 16.03638541 -26.74209759
X -32.94873537 45.35004667 6.73240047
X -36.90595299 22.27769310 -3.36622031
X -32.94873537 31.88519133 -24.35814126
X -29.56886802 51.59134092 -0.00002304
X -28.05734540 20.99190206 -32.67986606
X -20.72026044 48.71623643 -39.41229917
X -19.20873781 31.58165627 -33.47452527
X -33.52608564 19.21501824 6.73241215
X -34.46025800 27.23320718 -15.05416256
X -7.91443523 37.82297148 6.73240383
X -26.54582277 47.43047308 -6.73244191
X -13.73999756 39.10872395 -50.30558044
X -35.97178063 57.83263180 -14.25952175
X -42.37469323 43.26959515 -36.04608637
X -11.29430258 15.54525662 -38.61762988
X -16.76304282 27.23320045 -30.10831296
X -46.33191084 21.78655503 -36.04607678
X -20.14291017 38.61761436 -19.21503248
X -30.50304038 55.44866875 -13.46486622
X -32.01456301 17.13457760 -11.68794769
X -21.65443279 23.07235358 10.09862079
X -39.92899824 41.49270045 -20.99193518
X -18.27456545 56.24332250 -15.05417551
X -39.92899824 33.17096813 -26.92969772
X -35.03760827 28.02785343 -33.47452367
X -0.93417236 25.64389709 -17.62571774
X -17.69721518 55.44866875 -13.46486622
X -14.31734783 57.52909258 -32.67988238
X -60.64925868 44.06426236 -7.52709488
X -39.92899824 26.43854670 -28.51900366
X -43.88621586 16.83103757 -31.88520973
X -25.61165041 50.30555997 -6.73244319
X -21.65443279 54.16287771 -42.77851197
X -13.73999756 29.80475406 -35.25142589
X -11.29430258 30.59940030 -53.67178700
X -28.05734540 14.25948734 -19.21502160
X -23.16595542 30.29588282 -23.37589360
X -21.65443279 8.01818222 -36.84072511
X -39.92899824 17.13458096 -4.16087249
X -4.89138997 37.82296811 -0.79467136
X -11.29430258 45.65357166 -6.73244111
X -37.48330326 49.01977309 -26.74211232
X -35.97178063 37.02829754 -36.84073806
X -29.56886802 35.55493871 -10.89330144
X -42.37469323 25.64389709 -17.62571774
X -38.41747561 17.62569471 -25.94744383
X -20.72026044 21.78655166 -43.57315198
X -38.41747561 31.09053500 -28.51900573
X -2.44569499 36.04605166 -34.45677420
X -39.92899824 39.90338700 -31.09056556
X -27.12317304 41.49269709 -28.51901038
X -12.80582520 61.19883580 -28.51901918
X -29.56886802 42.28734334 -46.93937150
X -20.14291017 34.45674652 -25.94745135
X 3.95721762 44.85890109 -42.77850781
X -0.93417236 54.16288186 -33.47453535
X -13.73999756 23.07232846 -46.14470845
X -6.40291260 41.49269709 -28.51901038
X -25.61165041 46.14469707 -2.38398403
X -21.65443279 25.64390124 -8.32174113
X -25.61165041 31.09053085 -37.82298235
X -38.41747561 10.89327919 -14.25950079
X -13.73999756 31.39406751 -25.15279550
X -12.80582520 21.78656175 -20.99192638
X 1.51152263 12.97370976 -18.42036656
X -44.82038822 48.22510509 -57.03800524
X -25.61165041 54.46641021 -39.41230173
X -40.86317060 3.36620735 -6.73242223
X -4.89138997 31.09054588 -4.16087873
X -27.12317304 22.27767965 -33.47452111
X -41.44052087 21.78655503 -36.04607678
X -25.61165041 57.03797627 -16.64348482
X -25.61165041 10.89328671 2.57155103
X -29.56886802 50.00200650 -57.03800603
X -15.25152019 18.42035103 -21.78657935
X -18.27456545 36.04605582 -25.15279759
X -15.25152019 49.51089355 -33.47453327
X -22.23178306 44.06425228 -30.10832048
X -33.52608564 37.82295803 -23.37589696
X -15.25152019 45.35002828 -34.45677835
X -19.20873781 54.95753483 -36.84074607
X -32.01456301 41.49270125 -19.21503377
X -28.05734540 46.93933916 -30.10832176
X -33.52608564 16.03637788 -43.57314942
X -47.26608320 36.53718044 -22.58124191
X -48.77760583 27.72433180 -12.48260688
X -16.76304282 8.01819567 -6.73242431
X -56.69204106 31.88519133 -24.35814126
X -0.93417236 38.12649310 -14.25951295
X -34.46025800 60.89531002 -16.83107901
X -20.72026044 32.67984431 -27.72435197
X -52.73482345 48.22511596 -32.67987823
X -21.65443279 33.96564365 20.19724701
X -28.05734540 16.83103837 -30.10830831
X -25.61165041 -8.32173568 -13.46483774
X -6.40291260 52.38598301 -27.72436077
X -27.12317304 34.76028238 -15.05416593
X -60.64925868 26.43853998 -43.57315406
X -51.22330082 35.25140621 -14.25951167
X -31.08039065 42.77847883 -20.00968881
X -20.72026044 28.51898062 -25.15279422
X -8.84860759 43.26959851 -28.51901118
X -37.48330326 33.96562862 -13.46485663
X -21.65443279 5.44663455 -18.42036319
X -43.30886559 32.67983422 -50.30557757
X -29.56886802 58.32374891 -28.51901790
X -20.14291017 30.29588203 -25.15279501
X -25.61165041 6.73241215 -19.21501824
X -25.61165041 16.03639213 -11.68794720
X -28.05734540 41.18917132 -16.83107021
X -8.84860759 55.75219452 -25.15280639
X 1.51152263 35.74252747 -19.21503119
X -34.46025800 36.53718716 -7.52709152
X -20.72026044 46.14468876 -20.99193726
X -33.52608564 35.25141373 2.57154015
X -32.01456301 41.49270045 -20.99193518
X -22.58860515 24.35811614 -24.35813789
X -21.65443279 31.39407423 -10.09864511
X -27.12317304 24.84924076 -21.78658222
X -32.01456301 35.74253083 -11.68795600
X -25.61165041 47.73400221 -10.89330688
X -24.10012778 45.65357166 -6.73244111
X -6.40291260 54.95754155 -21.78659567
X -63.09495366 43.26960266 -19.21503456
X -4.89138997 50.30555997 -6.73244319
X -15.25152019 27.72433101 -14.25950830
X -43.88621586 29.31364447 -4.16087792
X -28.05734540 25.15277326 -18.42037200
X -11.29430258 57.52909930 -17.62573198
X -27.12317304 37.33183261 -27.72435405
X -19.20873781 6.24129504 -4.95552210
X 15.82887046 35.25139613 -36.84073726
X -51.22330082 10.89327584 -21.78657599
X -42.37469323 69.21703562 -25.94746687
X -16.76304282 1.28577008 -17.62570686
X -50.28912846 43.26959851 -28.51901118
X -36.90595299 26.43854749 -26.74210224
X -40.86317060 23.56347068 -4.16087536
X -43.30886559 17.62570143 -10.89329344
X -27.12317304 17.13458096 -4.16087249
X -33.52608564 41.98382092 -27.72435613
X -15.25152019 41.18916122 -39.41229581
X -3.37986735 42.47495226 -10.09865006
X -24.10012778 17.13457760 -11.68794769
X -21.65443279 -2.87509441 -16.83105053
X -25.61165041 17.62568719 -42.77849565
X -19.20873781 26.43854333 -36.04607886
X -15.25152019 58.81487610 -20.19728845
X -3.95721762 12.17906014 -7.52708064
X 5.46874024 52.08244793 -36.84074478
X -40.86317060 42.77846717 -46.14471725
X -12.80582520 -4.16086784 -6.73241887
X -13.73999756 21.48303261 -16.83106142
X -30.50304038 15.05413695 -30.10830752
X -8.84860759 51.59133420 -15.05417344
X -12.80582520 46.14468541 -28.51901246
X -35.97178063 42.77847725 -23.56349164
X -54.24634608 48.71624058 -30.10832255
X -26.54582277 36.53717628 -31.88521853
X -32.01456301 20.68838715 3.36620112
X -20.14291017 42.77849228 10.09861198
X -33.52608564 36.84071966 -4.16088129
X -8.84860759 18.91147901 -11.68794848
X -21.65443279 20.50079168 -3.36621952
X -33.52608564 31.09053421 -30.29590716
X -8.84860759 58.32375563 -13.46486750
X -32.01456301 2.08042048 -26.74209136
X -38.41747561 24.35810605 -46.93936349
X -6.40291260 48.22512269 -17.62572782
X -25.61165041 31.09052828 -43.57315614
X -30.50304038 32.67984094 -35.25142717
X -32.01456301 33.17096892 -25.15279631
X -39.92899824 53.36822810 -31.88522605
X -15.25152019 49.51089691 -25.94745807
X -24.10012778 22.27768637 -18.42037072
X -19.20873781 37.33184093 -9.11640081
X -28.05734540 36.04605582 -25.15279759
X -54.24634608 46.14469965 3.36618975
X -35.97178063 45.35003164 -26.92970316
X -32.01456301 53.36822810 -31.88522605
X -39.92899824 48.22513357 6.73239918
X -27.12317304 33.17096972 -23.37589488
X -6.40291260 15.54526493 -20.00967665
X -28.63469567 39.41226397 -30.10831839
X -3.37986735 26.43854670 -28.51900366
X -20.14291017 20.99190541 -25.15279086
X -6.40291260 4.65198831 -0.00000208
X -6.40291260 19.70613871 -0.00000880
X -18.27456545 25.15275902 -50.30557420
X -0.93417236 44.85890861 -25.94745599
X -22.23178306 44.06426236 -7.52709488
X -38.41747561 41.98382428 -20.19728093
X -20.72026044 10.89327584 -21.78657599
X -25.61165041 11.87552764 -10.89329087
X -39.92899824 23.86699566 -17.62571695
X -46.33191084 21.78655166 -43.57315198
X 1.51152263 34.76028159 -16.83106733
X -8.84860759 44.85891196 -18.42038079
X -24.10012778 31.58166299 -18.42037487
X -28.63469567 48.71625067 -7.52709696
X -35.97178063 16.83104509 -15.05415792
X -17.69721518 48.71625403 -0.00002176
X -6.40291260 59.11839515 -46.93937901
X -20.72026044 28.51898477 -15.84881760
X -25.61165041 26.92967468 -18.42037279
X -42.37469323 38.12648301 -36.84073855
X -25.61165041 33.66208267 -46.93936764
X -34.46025800 62.48462012 -14.25952383
X -32.01456301 19.70613119 -16.83106062
X -23.16595542 27.72433852 2.57154351
X -25.61165041 32.67986271 13.46482686
X -32.01456301 38.92113599 -40.20694927
X -35.97178063 29.31363774 -19.21502833
X -48.77760583 34.45675067 -16.64347472
X -20.14291017 20.99190206 -32.67986606
X -36.90595299 44.06426236 -7.52709488
X -40.86317060 42.77847053 -38.61764205
X -28.05734540 31.88520637 9.30396238
X -52.73482345 50.79668459 -4.16088753
X -13.73999756 49.01977645 -19.21503713
X -35.03760827 34.76027902 -22.58124112
X -19.20873781 65.85083499 -4.16089425
X -56.69204106 25.15277663 -10.89329679
X -12.80582520 43.57312013 -49.51092796
X -21.65443279 51.59133420 -15.05417344
X -38.41747561 39.41225982 -39.41229501
X -17.69721518 48.71623307 -46.93937437
X -59.13773605 59.60952314 -36.84074815
X -24.67747805 47.43048060 10.09860991
X -11.29430258 41.49269709 -28.51901038
X -29.56886802 53.18063678 -29.31367007
X -4.89138997 21.78657263 3.36620063
X -23.16595542 71.29747290 -15.05418224
X -35.97178063 12.67018062 -14.25950158
X -40.86317060 10.09862286 -18.42036527
X -15.25152019 34.45674236 -35.25142797
X -55.18051843 40.69805084 -10.09864927
X -2.44569499 25.15277246 -20.19727342
X -13.73999756 38.12649053 -20.00968673
X -34.46025800 14.75061117 -18.42036735
X -25.61165041 36.84070878 -28.51900830
X -24.67747805 29.80475406 -35.25142589
X -10.36013022 27.72432428 -29.31365870
X -28.05734540 47.92158009 -43.57316365
X -41.44052087 35.25140285 -21.78658687
X -7.91443523 52.87710427 -32.67988030
X -17.69721518 21.78655918 -26.74210016
X -14.31734783 44.06424812 -39.41229709
X -16.76304282 42.28735007 -31.88522110
X -24.10012778 31.58166971 -3.36622447
X -9.78277995 44.55537611 -29.31366622
X -19.20873781 63.27926972 -25.15280974
X -46.33191084 39.41227742 -0.00001760
X 1.51152263 61.68997051 -3.36623792
X -12.80582520 28.51897309 -41.98384604
X -15.25152019 64.56504395 -33.47453999
X -51.22330082 24.35811693 -22.58123647
X -63.09495366 43.26960939 -4.16088416
X -19.20873781 46.63580587 -35.25143340
X -16.18569255 30.59941790 -14.25950959
X -29.56886802 27.23319967 -31.88521437
X -24.67747805 31.39406078 -40.20694590
X -25.61165041 35.25141788 11.87551677
X -19.20873781 33.17096813 -26.92969772
X -16.18569255 34.76028238 -15.05416593
X -27.12317304 44.06425484 -24.35814669
X -13.73999756 43.26960187 -20.99193598
X -30.50304038 28.51897390 -40.20694463
X -6.40291260 12.97370639 -25.94744175
X -8.84860759 40.69803740 -40.20695005
X -44.82038822 44.06426572 -0.00001968
X -15.25152019 25.15278078 -1.58932017
X -17.69721518 31.09054925 3.36619648
X -4.89138997 24.35811693 -22.58123647
X -27.12317304 46.63579914 -50.30558380
X -43.88621586 20.99189117 -57.03799308
X -16.76304282 36.53719468 9.30396030
X -40.86317060 16.83105181 -0.00000751
X -4.89138997 20.19725917 -6.73242975
X -35.03760827 35.74252332 -28.51900781
X -34.46025800 23.07232846 -46.14470845
X -46.33191084 17.62568719 -42.77849565
X -35.03760827 37.33184014 -10.89330224
X -7.33708496 31.88518461 -39.41229165
X -25.61165041 44.55537195 -38.61764284
X -26.54582277 43.26960524 -13.46486078
X -30.50304038 28.51898062 -25.15279422
X -27.12317304 15.54526414 -21.78657807
X -28.05734540 34.45674573 -27.72435277
X -16.76304282 29.80474733 -50.30557629
X -39.92899824 61.68996714 -10.89331311
X -11.87165285 43.26960603 -11.68795936
X -39.35164797 27.23319967 -31.88521437
X -20.14291017 23.56346317 -20.99192717
X -43.88621586 31.88519133 -24.35814126
X -12.80582520 41.98383596 5.93774751
X -20.72026044 41.98382587 -16.64347809
X -28.63469567 41.98381836 -33.47452991
X -3.37986735 41.49269789 -26.74210896
X 1.51152263 37.33182925 -35.25142925
X -20.14291017 31.88519212 -22.58123984
X -17.69721518 29.50122570 -29.31365950
X -2.44569499 31.88518125 -46.93936685
X -4.89138997 39.41226989 -16.83106942
X -35.03760827 22.27768221 -27.72434733
X -3.37986735 37.33183677 -18.42037743
X -42.37469323 44.85890861 -25.94745599
X -25.61165041 37.82295724 -25.15279838
X -16.76304282 50.00202074 -25.15280382
X -0.93417236 47.43046635 -21.78659231
X -17.69721518 48.71624315 -24.35814878
X -32.94873537 25.15277326 -18.42037200
X -35.97178063 36.04607006 6.73240463
X -32.01456301 -6.24131521 -40.20692910
X 3.95721762 51.59133340 -16.83107486
X -24.67747805 25.64389373 -25.15279294
X -19.20873781 37.33183677 -18.42037743
X -2.44569499 36.04605918 -17.62572238
X -50.28912846 40.69803740 -40.20695005
X -25.61165041 57.03797884 -10.89331103
X 5.46874024 14.25947983 -36.04607341
X -29.56886802 33.96563021 -9.91105378
X -44.82038822 15.54526493 -20.00967665
X -25.61165041 57.03796796 -35.25143805
X -24.67747805 43.26959179 -43.57316157
X -40.86317060 60.40418619 -17.62573327
X -48.77760583 38.61761357 -20.99193390
X 1.51152263 30.59941454 -21.78658479
X -8.84860759 29.80476078 -20.19727549
X -32.01456301 37.33183677 -18.42037743
X -24.10012778 33.17097229 -17.62572110
X -41.44052087 39.41226733 -22.58124320
X -46.33191084 24.35812030 -15.05416128
X -43.88621586 31.88518125 -46.93936685
X -37.48330326 20.50078496 -18.42036991
X -8.84860759 49.01976556 -43.57316414
X -10.36013022 49.51090363 -10.89330767
X -34.46025800 42.28734670 -39.41229630
X -0.93417236 27.23321390 -0.00001216
X -39.92899824 54.95755580 10.09860655
X 1.51152263 39.90338779 -29.31366415
X -21.65443279 39.10872395 -50.30558044
X -26.54582277 40.69805084 -10.09864927
X -55.18051843 12.17905006 -30.10830624
X -35.97178063 67.13660170 -29.31367630
X -18.27456545 31.88519133 -24.35814126
X -44.82038822 37.33182589 -42.77850445
X -38.41747561 26.92968219 -1.58932097
X -24.67747805 51.59133083 -22.58124864
X -25.61165041 51.89485246 -43.57316543
X -35.03760827 50.79668795 3.36618767
X -48.77760583 14.25947647 -43.57314861
X 5.46874024 31.88519133 -24.35814126
X -18.27456545 45.35003244 -25.15280174
X -50.28912846 54.16289195 -10.89330975
X 7.91443523 10.89326911 -36.84072639
X -47.26608320 44.85889772 -50.30558301
X -36.90595299 15.54525742 -36.84072846
X -20.14291017 42.77848141 -14.25951503
X -4.89138997 21.78656927 -4.16087457
X -52.73482345 8.81284863 -10.09863503
X -28.05734540 52.08244793 -36.84074478
X -28.05734540 52.08246138 -6.73244399
X -30.50304038 52.87711179 -15.84882849
X -25.61165041 44.55536523 -53.67179323
X -37.48330326 31.39406751 -25.15279550
X -19.20873781 17.13458096 -4.16087249
X -11.87165285 43.26959931 -26.74210976
X -7.33708496 22.58122223 -7.52708529
X -6.40291260 68.42238186 -24.35815758
X -0.93417236 27.23320045 -30.10831296
X -39.92899824 48.22512604 -10.09865262
X -25.61165041 20.19725245 -21.78658015
X -2.44569499 31.88519133 -24.35814126
X -32.01456301 2.08043392 3.36620944
X -48.77760583 56.24332250 -15.05417551
X -34.46025800 44.85890524 -33.47453119
X -15.25152019 44.36778734 -20.99193647
X -52.73482345 23.86699903 -10.09864175
X -56.69204106 49.51090363 -10.89330767
X -23.16595542 18.42036191 2.57154767
X -43.88621586 46.93934925 -7.52709616
X -21.65443279 56.73443209 -46.14472348
X -15.82887046 41.98381836 -33.47452991
X -39.92899824 22.27767886 -35.25142253
X -35.97178063 12.67017389 -29.31365198
X -34.46025800 42.28735007 -31.88522110
X -17.69721518 37.82295052 -40.20694878
X -15.25152019 26.13502843 -0.00001167
X -63.09495366 23.07233598 -29.31365662
X 5.46874024 27.72433101 -14.25950830
X -12.80582520 21.78655918 -26.74210016
X -23.16595542 19.40259276 -33.47451983
X -24.10012778 30.59941790 -14.25950959
X -15.25152019 30.29589627 6.73240719
X -11.29430258 19.70612862 -22.58123440
X 7.91443523 37.82296811 -0.79467136
X -40.86317060 25.15276911 -27.72434862
X -13.73999756 28.21544139 -43.57315484
X -37.48330326 23.07232510 -53.67178364
X 15.82887046 28.51897390 -40.20694463
X -12.80582520 17.62569471 -25.94744383
X -15.25152019 31.88520637 9.30396238
X -17.69721518 24.35810862 -41.18918971
X -19.20873781 29.01011532 -0.00001296
X -25.61165041 66.34195130 -20.19729181
X -0.93417236 23.07232510 -53.67178364
X -39.92899824 41.49269374 -36.04608558
X -39.92899824 23.86699647 -15.84881553
X -48.77760583 56.24331578 -30.10832591
X -30.50304038 46.14467869 -43.57316285
X -51.22330082 70.50281914 -13.46487294
X -23.16595542 26.13501498 -30.10831247
X -28.05734540 45.35002155 -49.51092876
X -25.61165041 30.10829407 -15.05416384
X -15.25152019 25.15277405 -16.64347057
X -25.61165041 61.19885004 3.36618303
X -7.33708496 34.45674236 -35.25142797
X -46.33191084 25.94742959 -14.25950751
X -15.25152019 38.61761851 -9.91105586
X -24.10012778 59.11840604 -22.58125200
X -14.31734783 61.68997051 -3.36623792
X -37.48330326 49.01977981 -11.68796193
X -3.37986735 26.43855342 -13.46485326
X -50.28912846 40.69804077 -32.67987486
X -25.61165041 15.05414704 -7.52708192
X -7.33708496 49.51090443 -9.11640625
X -29.56886802 27.23321134 -5.75018594
X -12.80582520 57.03797212 -25.94746144
X -48.77760583 53.67175724 -36.04609102
X -48.77760583 14.25948734 -19.21502160
X -38.41747561 50.30555325 -21.78659359
X -7.91443523 37.82296139 -15.84882176
X -7.33708496 20.99190126 -34.45676748
X -16.18569255 37.33183677 -18.42037743
X -24.10012778 30.59942206 -4.95553297
X -21.65443279 29.80474990 -44.55540250
X -22.23178306 23.86699231 -25.15279215
X -32.01456301 44.06426572 -0.00001968
X -23.16595542 38.61761099 -26.74210768
X -21.65443279 43.26959435 -37.82298779
X -33.52608564 17.62569727 -20.19727005
X -10.36013022 20.99190957 -15.84881425
X -29.56886802 66.64547787 -30.10833056
X -18.27456545 52.08245130 -29.31366958
X -16.18569255 46.63581003 -25.94745679
X -2.44569499 67.13659834 -36.84075150
X -10.36013022 67.13660842 -14.25952591
X -15.82887046 35.25140957 -6.73243647
X -38.41747561 6.73241551 -11.68794304
X -59.13773605 59.60953322 -14.25952254
X -39.92899824 41.49270125 -19.21503377
X -54.24634608 46.14468956 -19.21503584
X -28.05734540 52.08245803 -14.25951919
X -6.40291260 22.27769725 5.93775631
X -20.14291017 27.72432093 -36.84073390
X -52.73482345 44.06424476 -46.93937229
X -37.48330326 58.32376315 3.36618432
X -32.01456301 41.49269630 -30.29591180
X -11.29430258 22.27768557 -20.19727212
X -30.50304038 21.78656255 -19.21502496
X -35.97178063 29.31362686 -43.57315533
X -23.16595542 45.35003164 -26.92970316
X -12.80582520 52.87709339 -57.03800732
X -46.33191084 41.98382092 -27.72435613
X -19.20873781 35.74252411 -26.74210640
X -20.14291017 29.31363774 -19.21502833
X -16.76304282 51.59131996 -46.93937565
X -19.20873781 6.24129840 2.57155310
X -15.25152019 51.10019949 -40.20695470
X -37.48330326 32.37631260 -29.31366078
X -0.93417236 39.10873819 -18.42037823
X -50.28912846 29.80476078 -20.19727549
X -39.92899824 50.79667451 -26.74211311
X -20.14291017 25.15275902 -50.30557420
X -15.25152019 7.52706175 -30.10830415
X -39.92899824 46.63581003 -25.94745679
X -32.01456301 26.43855758 -4.16087664
X -52.73482345 33.17097981 -0.79466929
X -54.24634608 35.25139613 -36.84073726
X -24.67747805 36.53718380 -15.05416672
X -16.76304282 58.32376315 3.36618432
X -28.05734540 3.36619391 -36.84072302
X 9.42595786 50.79667451 -26.74211311
X -52.73482345 46.63581675 -10.89330639
X -13.73999756 62.48462091 -12.48262242
X -30.50304038 35.25140621 -14.25951167
X -24.10012778 41.49269037 -43.57316078
X -24.67747805 54.16288858 -18.42038495
X -25.61165041 74.66367690 -29.31367967
X -38.41747561 41.98383932 13.46482270
X -35.97178063 25.15277246 -20.19727342
X -35.97178063 25.15276911 -27.72434862
X -15.25152019 10.09860862 -50.30556749
X -8.84860759 27.23319630 -39.41228958
X -60.64925868 39.90339788 -6.73243855
X -23.16595542 64.56505067 -18.42038959
X -15.25152019 19.40259948 -18.42036942
X -24.67747805 44.85891533 -10.89330560
X -10.36013022 62.97574058 -20.99194478
X -25.61165041 41.98382508 -18.42037952
X -55.18051843 29.80476829 -3.36622368
X -15.25152019 16.83104173 -22.58123312
X -47.26608320 23.07233261 -36.84073183
X -44.82038822 24.84924155 -20.00968081
X -28.05734540 42.77847132 -36.84074063
X -12.80582520 20.19724573 -36.84073055
X -10.36013022 56.24331163 -39.41230254
X -17.69721518 6.73241471 -13.46484446
X -12.80582520 44.55538619 -6.73244062
X -25.61165041 31.09052413 -52.87713276
X -32.01456301 12.97371647 -3.36621615
X -29.56886802 20.50079919 13.46483229
X -37.48330326 31.39406830 -23.37589409
X 3.02304526 17.62568382 -50.30557085
X -37.48330326 31.39406078 -40.20694590
X -28.05734540 25.15277663 -10.89329679
X -11.87165285 27.23319294 -46.93936477
X -20.72026044 20.19725917 -6.73242975
X -51.22330082 37.82297148 6.73240383
X -19.20873781 49.81443199 -16.83107406
X -38.41747561 70.50280569 -43.57317373
X -20.72026044 36.84070207 -43.57315870
X -28.05734540 49.51091115 5.93774414
X 0.00000000 6.73240878 -26.74209344
X -29.56886802 53.18064013 -21.78659487
X -25.61165041 61.19883916 -20.99194398
X -35.03760827 44.06426236 -7.52709488
X -52.73482345 30.59940782 -36.84073519
X -14.31734783 35.74252747 -19.21503119
X -10.36013022 27.72433852 2.57154351
X -29.56886802 8.01818895 -21.78657470
X -50.28912846 58.32376315 3.36618432
X -22.58860515 37.82295724 -25.15279838
X -36.90595299 22.27768973 -10.89329551
X -38.41747561 59.60951563 -53.67179996
X -6.40291260 46.63580666 -33.47453199
X -32.94873537 41.18917547 -7.52709359
X -38.41747561 61.19882908 -43.57316958
X -19.20873781 4.65198159 -15.05415248
X -28.05734540 38.61762108 -4.16088208
X -12.80582520 32.67985182 -10.89330016
X -25.61165041 40.39451162 -28.51900989
X -40.86317060 36.04604830 -41.98384940
X 11.87165285 29.80476157 -18.42037407
X -24.67747805 18.91147486 -20.99192510
X -43.88621586 25.15276239 -42.77849901
X -36.90595299 57.52909930 -17.62573198
X -2.44569499 38.61762444 3.36619312
X -28.05734540 44.36778734 -20.99193647
X 3.02304526 17.62568719 -42.77849565
X -29.56886802 24.05459115 -10.89329630
X -43.88621586 16.83104094 -24.35813454
X -43.88621586 41.18917547 -7.52709359
X -19.20873781 61.68996714 -10.89331311
X -12.80582520 43.57313774 -10.09865055
X 0.00000000 24.35811693 -22.58123647
X -8.84860759 65.05617450 -17.62573534
X -0.93417236 36.53718300 -16.83106814
X -17.69721518 39.41227742 -0.00001760
X -14.31734783 26.43853998 -43.57315406
X -36.90595299 8.81284527 -17.62571023
X -59.13773605 10.89328255 -6.73242559
X -51.22330082 26.92968556 5.93775423
X -27.12317304 46.63581003 -25.94745679
X -6.40291260 39.90338779 -29.31366415
X -34.46025800 12.17906351 -0.00000544
X -21.65443279 38.12648895 -23.56348957
X -46.33191084 55.44865866 -36.04609181
X 11.87165285 23.07234270 -14.25950623
X -15.25152019 18.42035183 -20.00967793
X -25.61165041 30.10830080 -0.00001345
X -43.88621586 45.35003244 -25.15280174
X -7.91443523 21.78656175 -20.99192638
X -21.65443279 16.33991039 -40.20693918
X -3.37986735 22.27767549 -42.77849772
X -3.95721762 43.26961275 3.36619104
X -12.80582520 31.09053580 -26.74210431
X -43.88621586 20.99190878 -17.62571567
X -29.56886802 13.76836688 -12.48260066
X 9.42595786 23.86699903 -10.09864175
X 1.51152263 33.17096220 -40.20694670
X -27.12317304 33.17095805 -49.51092332
X -55.18051843 38.12647550 -53.67179037
X -2.44569499 67.13661178 -6.73245072
X -42.37469323 27.23320045 -30.10831296
X -60.64925868 30.59941454 -21.78658479
X -15.25152019 52.08245051 -31.09057100
X -21.65443279 55.75220877 6.73239583
X -11.29430258 39.90338700 -31.09056556
X -12.80582520 32.67984510 -25.94745055
X -35.97178063 60.40418619 -17.62573327
X -16.18569255 44.06425900 -15.05417008
X -32.94873537 27.72432765 -21.78658351
X 5.46874024 38.61761357 -20.99193390
X 0.00000000 31.09054252 -11.68795392
X -37.48330326 39.10873146 -33.47452862
X -39.92899824 42.47495226 -10.09865006
X 5.46874024 41.18917883 -0.00001840
X -23.16595542 56.24331578 -30.10832591
X -46.33191084 41.98381836 -33.47452991
X -28.05734540 40.20690942 -50.30558093
X -21.65443279 5.44664128 -3.36621279
X -2.44569499 42.77847725 -23.56349164
X -17.69721518 16.03639133 -13.46484862
X -19.20873781 33.17096141 -41.98384812
X -17.69721518 39.41227148 -13.27726658
X -32.01456301 29.01012284 16.83103886
X -19.20873781 4.65197822 -22.58122767
X -32.01456301 4.65198159 -15.05415248
X -20.14291017 45.35004667 6.73240047
X -17.69721518 47.73400558 -3.36623168
X -51.22330082 13.46483438 -15.84881088
X -29.56886802 18.91147565 -19.21502368
X -34.46025800 44.85891533 -10.89330560
X -35.03760827 30.59940782 -36.84073519
X -42.37469323 14.75061789 -3.36621695
X -59.13773605 41.98383181 -3.36622911
X -33.52608564 31.09054925 3.36619648
X -50.28912846 47.43046299 -29.31366750
X -3.37986735 44.06425564 -22.58124527
X -23.16595542 31.88519885 -7.52708944
X -46.33191084 28.51897309 -41.98384604
X -46.33191084 55.44866202 -28.51901662
X -31.08039065 42.77849228 10.09861198
X -12.80582520 43.57312429 -40.20695135
X -32.01456301 63.27926636 -32.67988495
X -25.61165041 50.30556749 10.09860862
X -7.33708496 23.56345981 -28.51900238
X -29.56886802 69.21704234 -10.89331647
X -43.30886559 17.62570478 -3.36621824
X -37.48330326 55.75220540 -0.79467937
X -46.33191084 44.55537946 -21.78659103
X -28.05734540 52.08245051 -31.09057100
X -35.97178063 12.67018397 -6.73242638
X -13.73999756 44.85891948 -1.58932898
X -27.12317304 35.74251995 -36.04608302
X -37.48330326 32.37631180 -31.09056220
X 0.00000000 37.82296475 -8.32174657
X -23.16595542 29.31364447 -4.16087792
X -27.12317304 15.54526078 -29.31365327
X -13.73999756 40.69805084 -10.09864927
X -34.46025800 33.96562525 -20.99193182
X -19.20873781 38.92114607 -17.62572367
X -26.54582277 36.53718380 -15.05416672
X -32.94873537 31.88518461 -39.41229165
X -35.03760827 33.17096557 -32.67987150
X -23.16595542 19.40260284 -10.89329422
X 7.91443523 41.98383181 -3.36622911
X -34.46025800 28.21545227 -19.21502784
X -42.37469323 16.33991790 -23.37588737
X -7.33708496 36.04604910 -40.20694798
X -20.72026044 26.92968140 -3.36622239
X -34.46025800 5.44662783 -33.47451359
X -28.05734540 46.93933837 -31.88522318
X -35.97178063 46.93933165 -46.93937357
X -7.33708496 31.88518125 -46.93936685
X -19.20873781 41.49269709 -28.51901038
X -17.69721518 51.28779418 -35.25143549
X -33.52608564 32.67983422 -50.30557757
X -39.92899824 30.59941118 -29.31365999
X -15.25152019 16.83105181 -0.00000751
X -51.22330082 32.67983422 -50.30557757
X -59.13773605 39.41225982 -39.41229501
X -25.61165041 35.25138445 -62.97576570
X -25.61165041 -8.32174577 -36.04606334
X -32.94873537 31.88518877 -30.10831504
X -37.48330326 8.01818479 -31.09055132
X -20.14291017 14.25948655 -20.99192302
X -13.73999756 36.53717292 -39.41229373
X -47.84343347 48.22512348 -15.84882640
X -10.36013022 56.24331835 -24.35815213
X -7.33708496 45.35004331 -0.79467473
X -32.01456301 49.81442526 -31.88522446
X -26.54582277 27.23321055 -7.52708736
X -36.90595299 12.97371311 -10.89329136
X -7.91443523 31.09054925 3.36619648
X -19.20873781 4.65197407 -31.88520429
X -40.86317060 25.15276990 -25.94744719
X 9.42595786 19.70612447 -31.88521101
X -43.88621586 29.31364783 3.36619727
X -44.82038822 41.49269293 -37.82298700
X -42.37469323 8.01819567 -6.73242431
X 9.42595786 19.70611775 -46.93936141
X -29.56886802 36.53719052 -0.00001631
X -46.33191084 44.55537611 -29.31366622
X -38.41747561 47.73399806 -20.19728350
X -35.97178063 42.77848477 -6.73243983
X -25.61165041 63.77039434 -22.58125408
X -17.69721518 15.05414704 -7.52708192
X -21.65443279 40.69804077 -32.67987486
X -6.40291260 35.74252747 -19.21503119
X -21.65443279 55.75220540 -0.79467937
X -32.01456301 7.22352925 -33.47451438
X -51.22330082 13.46484110 -0.79466049
X -28.05734540 33.47449807 -29.31366127
X -25.61165041 39.41227148 -13.27726658
X -28.05734540 5.93775502 -25.15278414
X -7.91443523 41.98382171 -25.94745471
X -19.20873781 22.27767886 -35.25142253
X -12.80582520 41.98381420 -42.77850652
X -35.97178063 10.09861870 -27.72434189
X -25.61165041 -4.16087792 -29.31364447
X -24.10012778 44.06425228 -30.10832048
X -29.56886802 49.01977566 -20.99193855
X -37.48330326 42.28735422 -22.58124448
X -43.88621586 30.29588540 -17.62571982
X -24.10012778 18.11681516 -32.67986478
X -41.44052087 31.09053165 -36.04608093
X 5.46874024 38.61761436 -19.21503248
X -38.41747561 59.60952907 -23.56349916
X -46.33191084 20.19724909 -29.31365534
X -29.56886802 32.37632347 -4.95553377
X -47.26608320 29.80475821 -25.94744927
X -48.77760583 25.15276654 -33.47452239
X -3.95721762 38.12648223 -38.61763997
X -11.87165285 27.23319967 -31.88521437
X -25.61165041 5.14310205 -21.78657342
X -24.10012778 34.76028910 -0.00001552
X -35.97178063 25.15277663 -10.89329679
X -34.46025800 16.33992799 -0.79466177
X 3.02304526 25.94742959 -14.25950751
X 5.46874024 25.15277326 -18.42037200
X -31.08039065 52.08245466 -21.78659438
X -28.05734540 49.51090107 -16.64348145
X -18.27456545 42.77848141 -14.25951503
X -23.16595542 41.18917547 -7.52709359
X -40.86317060 56.24331499 -31.88522733
X -25.61165041 67.93126891 -0.79468481
X -30.50304038 21.78656927 -4.16087457
X -33.52608564 37.82296475 -8.32174657
X -55.18051843 5.44664128 -3.36621279
X -32.01456301 34.76027486 -31.88521774
X -38.41747561 24.35812030 -15.05416128
X -3.95721762 44.85890445 -35.25143261
X -23.16595542 53.67176139 -26.74211441
X -21.65443279 25.64387949 -57.03799516
X -25.61165041 59.60951563 -53.67179996
X -38.41747561 35.25139197 -46.14471389
X -39.92899824 48.22512348 -15.84882640
X -35.03760827 22.27767214 -50.30557292
X -43.88621586 29.31362686 -43.57315533
X -24.67747805 38.12648974 -21.78658815
X -37.48330326 50.00201402 -40.20695421
X -38.41747561 31.09053916 -19.21502912
X -20.14291017 31.88520222 -0.00001424
X -21.65443279 51.59133835 -5.75019682
X -37.48330326 43.26960187 -20.99193598
X -50.28912846 18.91147150 -28.51900029
X -42.37469323 16.33992384 -10.09863839
X -27.12317304 23.86698895 -32.67986735
X -44.82038822 19.70613871 -0.00000880
X -38.41747561 15.05415039 -0.00000672
X -19.20873781 22.27767965 -33.47452111
X -27.12317304 46.63580251 -42.77850861
X -63.09495366 40.69805084 -10.09864927
X 11.87165285 40.69804412 -25.15279966
X -31.08039065 34.45674573 -27.72435277
X -21.65443279 8.01817806 -46.14470172
X -8.84860759 44.85890861 -25.94745599
X -27.12317304 22.27767214 -50.30557292
X -35.97178063 51.10021294 -10.09865391
X -28.05734540 46.93934253 -22.58124656
X -12.80582520 67.93125131 -40.20696222
X -8.84860759 33.96562269 -26.74210560
X -39.92899824 30.59942878 10.09861742
X -28.63469567 31.09053165 -36.04608093
X -23.16595542 58.81486601 -42.77851404
X -12.80582520 28.51898062 -25.15279422
X -47.84343347 26.43853998 -43.57315406
X 7.91443523 10.89327919 -14.25950079
X -46.33191084 33.66209355 -22.58124063
X -7.91443523 39.41226989 -16.83106942
X -36.90595299 35.74253755 3.36619439
X -21.65443279 18.91148573 3.36620191
X -31.08039065 49.51091452 13.46481934
X -12.80582520 52.87712187 6.73239711
X -15.25152019 5.93775166 -32.67985934
X -19.20873781 26.43856509 12.67017517
X 1.51152263 34.76027150 -39.41229294
X -18.27456545 27.72433101 -14.25950830
X -22.58860515 32.67985182 -10.89330016
X -35.97178063 34.45673564 -50.30557836
X -34.46025800 38.12648558 -31.09056477
X -20.14291017 49.51090443 -9.11640625
X -30.50304038 15.05414368 -15.05415712
X -27.12317304 22.27768973 -10.89329551
X -6.40291260 48.22511596 -32.67987823
X -42.37469323 12.17905342 -22.58123103
X -12.80582520 63.77040443 -0.00002848
X -31.08039065 49.51091115 5.93774414
X -39.92899824 54.95753483 -36.84074607
X -31.08039065 49.51089355 -33.47453327
X -25.61165041 16.03637788 -43.57314942
X -13.73999756 49.01978653 3.36618848
X -29.56886802 18.91147822 -13.46484990
X -6.40291260 19.70612526 -30.10830959
X -31.08039065 45.35003323 -23.37590032
X -18.27456545 56.24331915 -22.58125071
X -44.82038822 -2.08044737 -33.47451022
X -28.05734540 25.15276239 -42.77849901
X -15.25152019 60.40417947 -32.67988366
X -11.29430258 29.01010524 -22.58123856
X -3.95721762 54.16288522 -25.94746015
X -14.31734783 30.59940782 -36.84073519
X -10.36013022 31.88519133 -24.35814126
X -42.37469323 39.10874491 -3.36622783
X -34.46025800 49.01976894 -36.04608894
X -23.16595542 31.88517373 -63.77041867
X -21.65443279 20.50078831 -10.89329471
X -20.72026044 28.51899149 -0.79466721
X -13.73999756 42.28736430 -0.00001889
X -35.97178063 42.77848141 -14.25951503
X -13.73999756 50.00202746 -10.09865342
X -9.78277995 41.98382508 -18.42037952
X -25.61165041 35.25139117 -47.92161530
X -21.65443279 25.64390797 6.73240928
X -13.73999756 50.00202074 -25.15280382
X -9.78277995 39.41226733 -22.58124320
X 0.00000000 26.92968219 -1.58932097
X -38.41747561 39.41226653 -24.35814461
X -48.77760583 56.24331835 -24.35815213
X -33.52608564 24.35810525 -48.71626491
X -14.31734783 50.79668795 3.36618767
X -12.80582520 28.51898142 -23.37589280
X -10.36013022 42.77848141 -14.25951503
X -42.37469323 29.80475821 -25.94744927
X -8.84860759 27.23320303 -24.35813918
X 3.95721762 18.91147901 -11.68794848
X -2.44569499 14.25948319 -28.51899822
X -43.88621586 45.35003916 -10.09865135
X -8.84860759 38.12648974 -21.78658815
X -4.89138997 28.51898734 -10.09864383
X -15.25152019 14.25947647 -43.57314861
X -17.69721518 24.35810525 -48.71626491
X -42.37469323 23.07233261 -36.84073183
X -15.25152019 44.36778062 -36.04608686
X -48.77760583 31.88519885 -7.52708944
X -10.36013022 25.15276911 -27.72434862
X -24.10012778 54.95755243 2.57153134
X -47.26608320 27.23319294 -46.93936477
X -12.80582520 24.35811357 -30.10831167
X -8.84860759 47.43046715 -20.00969089
X -21.65443279 54.16288858 -18.42038495
X -41.44052087 17.62568719 -42.77849565
X 3.02304526 28.51897390 -40.20694463
X 7.91443523 48.71624058 -30.10832255
X -38.41747561 17.62569134 -33.47451903
X -19.20873781 64.26151402 -31.09057644
X -32.01456301 39.90338364 -38.61764077
X -13.73999756 44.85890524 -33.47453119
X -15.25152019 20.99190206 -32.67986606
X -29.56886802 18.91146477 -43.57315069
X -50.28912846 33.96562269 -26.74210560
X 3.02304526 25.94743295 -6.73243232
X -43.88621586 14.25948655 -20.99192302
X -13.73999756 42.28735758 -15.05416928
X -29.56886802 73.37791355 3.36617759
X -27.12317304 19.70612782 -24.35813582
X -3.37986735 33.17096557 -32.67987150
X -48.77760583 31.88519133 -24.35814126
X -29.56886802 33.96562190 -28.51900702
X -48.77760583 56.24332587 -7.52710032
X -8.84860759 36.53718795 -5.75019010
X -13.73999756 39.10873403 -27.72435485
X -19.20873781 15.54525327 -46.14470508
X -46.33191084 44.55538283 -14.25951582
X -15.25152019 41.18917547 -7.52709359
X -40.86317060 31.88519885 -7.52708944
X -50.28912846 12.17904927 -31.88520766
X -39.92899824 22.27768221 -27.72434733
X -25.61165041 61.19883659 -26.74211776
X -20.14291017 42.77848477 -6.73243983
X -28.05734540 64.56504732 -25.94746479
X 1.51152263 44.06425484 -24.35814669
X -46.33191084 25.94742287 -29.31365792
X -28.63469567 31.09053500 -28.51900573
X -46.33191084 33.66210027 -7.52709023
X -32.01456301 22.27767886 -35.25142253
X -47.84343347 39.90339452 -14.25951375
X -23.16595542 41.18916459 -31.88522061
X -29.56886802 28.21545227 -19.21502784
X -30.50304038 24.35811693 -22.58123647
X -15.25152019 41.18916874 -22.58124399
X -0.93417236 20.50078831 -10.89329471
X -21.65443279 21.48302252 -39.41228700
X -35.97178063 29.31364110 -11.68795313
X -7.33708496 31.88519885 -7.52708944
X -38.41747561 57.03796124 -50.30558844
X -12.80582520 6.73240799 -28.51899486
X -38.41747561 17.62569727 -20.19727005
X -44.82038822 15.54526078 -29.31365327
X -51.22330082 59.60953659 -6.73244735
X -8.84860759 47.43045963 -36.84074270
X -51.22330082 41.98382508 -18.42037952
X -24.67747805 23.07233519 -31.09055804
X -31.08039065 40.20692366 -18.42037872
X -28.05734540 23.56346060 -26.74210096
X -27.12317304 46.63580924 -27.72435821
X -31.08039065 29.31364447 -4.16087792
X -21.65443279 24.05458106 -33.47452190
X -8.84860759 38.12648223 -38.61763997
X -14.31734783 61.68995707 -33.47453871
X -12.80582520 63.77040107 -7.52710368
X -42.37469323 31.39406078 -40.20694590
X -25.61165041 15.05415792 16.83104509
X -17.69721518 41.00157326 -29.31366464
X -37.48330326 24.66164607 -26.74210145
X -15.25152019 67.13661178 -6.73245072
X -44.82038822 18.11683277 6.73241263
X -25.61165041 57.03797131 -27.72436285
X -32.01456301 41.49271133 3.36619183
X -25.61165041 6.73240463 -36.04607006
X -25.61165041 11.87552428 -18.42036607
X -33.52608564 35.25139197 -46.14471389
X -16.76304282 25.64389036 -32.67986813
X -24.10012778 46.63581339 -18.42038159
X -21.65443279 47.43045963 -36.84074270
X -21.65443279 20.50078159 -25.94744512
X -42.37469323 54.16287434 -50.30558716
X -19.20873781 52.38598301 -27.72436077
X -15.25152019 31.88519885 -7.52708944
X -51.22330082 46.14468876 -20.99193726
X -27.12317304 22.27769310 -3.36622031
X -24.10012778 26.43855758 -4.16087664
X -48.77760583 25.15276911 -27.72434862
X -35.97178063 25.15277742 -9.11639538
X -19.20873781 65.85083163 -11.68796945
X -67.05217128 28.51898734 -10.09864383
X -21.65443279 40.69805164 -8.32174785
X -13.73999756 21.48301916 -46.93936221
X -29.56886802 38.12650398 10.09861406
X -23.16595542 20.99190541 -25.15279086
X -29.56886802 45.84115962 -16.83107229
X -32.01456301 46.63581675 -10.89330639
X -28.05734540 18.42035183 -20.00967793
X -15.25152019 45.35002907 -32.67987694
X -2.44569499 20.99191293 -8.32173904
X -20.72026044 24.35811357 -30.10831167
X -15.25152019 14.25948319 -28.51899822
X -16.18569255 28.02786351 -10.89329808
X -12.80582520 24.35813117 9.30396574
X -36.90595299 30.59941118 -29.31365999
X -32.01456301 39.90339531 -12.48261232
X -42.37469323 27.23321055 -7.52708736
X -24.10012778 31.58165627 -33.47452527
X -15.25152019 19.40260620 -3.36621903
X -28.05734540 34.45673900 -42.77850317
X -10.36013022 18.42035439 -14.25950415
X -30.50304038 63.77039434 -22.58125408
X -24.10012778 37.33183677 -18.42037743
X -48.77760583 38.61761099 -26.74210768
X -33.52608564 54.46642781 -0.00002432
X -22.58860515 28.51897726 -32.67986942
X -56.69204106 25.15276239 -42.77849901
X -9.78277995 40.39451835 -13.46485949
X -32.01456301 11.38440718 -4.16086992
X -24.67747805 23.07232510 -53.67178364
X -23.16595542 53.67176733 -13.46486542
X -24.67747805 47.43047050 -12.48261569
X -23.16595542 45.35004667 6.73240047
X -27.12317304 52.38598045 -33.47453456
X -31.08039065 34.45675660 -3.36622575
X -33.52608564 36.84070958 -26.74210689
X -40.86317060 34.45675660 -3.36622575
X 5.46874024 31.88519212 -22.58123984
X -8.84860759 47.43047723 2.57153471
X -11.29430258 38.92113599 -40.20694927
X -6.40291260 18.11682605 -8.32173776
X -25.61165041 48.71624315 -24.35814878
X -35.97178063 40.20692366 -18.42037872
X -42.37469323 20.50078831 -10.89329471
X -2.44569499 16.83104173 -22.58123312
X -29.56886802 47.43045884 -38.61764412
X -44.82038822 44.06426236 -7.52709488
X -11.29430258 37.33184349 -3.36622704
X -48.77760583 56.24331163 -39.41230254
X -14.31734783 22.27768637 -18.42037072
X -4.89138997 36.84071550 -13.46485790
X -39.92899824 54.95754235 -20.00969425
X -42.37469323 39.10874155 -10.89330302
X -35.97178063 18.42035855 -4.95552754
X -19.20873781 35.74253004 -13.46485742
X -17.69721518 36.84070542 -36.04608351
X -24.67747805 40.69805836 6.73240255
X -24.10012778 44.06424812 -39.41229709
X -23.16595542 27.72432686 -23.56348492
X -21.65443279 9.60749903 -19.21501953
X -33.52608564 31.09053916 -19.21502912
X 0.00000000 13.46483438 -15.84881088
X -13.73999756 16.33991039 -40.20693918
X -17.69721518 17.62569134 -33.47451903
X -48.77760583 45.35003244 -25.15280174
X -20.14291017 25.15276990 -25.94744719
X -2.44569499 42.77847132 -36.84074063
X -50.28912846 44.85890861 -25.94745599
X -6.40291260 2.08042048 -26.74209136
X -23.16595542 57.83262172 -36.84074735
X -7.33708496 38.61761357 -20.99193390
X -32.01456301 39.90338443 -36.84073935
X -8.84860759 60.89529993 -39.41230461
X -7.33708496 34.45675324 -10.89330095
X -17.69721518 13.46482349 -40.20693790
X -26.54582277 29.80475406 -35.25142589
X -15.25152019 40.20692029 -25.94745392
X -19.20873781 30.59941533 -20.00968337
X -35.97178063 18.42035183 -20.00967793
X -3.37986735 15.54525327 -46.14470508
X -21.65443279 14.75061038 -20.19726877
X -15.25152019 46.93934174 -24.35814798
X -11.29430258 59.11840940 -15.05417680
X -48.77760583 31.88518125 -46.93936685
X -16.76304282 42.28735342 -24.35814590
X -19.20873781 24.84924155 -20.00968081
X -21.65443279 29.80475069 -42.77850109
X -19.20873781 35.74253755 3.36619439
X -17.69721518 46.14470716 20.19724157
X -34.46025800 20.50079168 -3.36621952
X -43.88621586 41.18916874 -22.58124399
X -15.25152019 71.29746618 -30.10833263
X -19.20873781 45.65356493 -21.78659152
X -31.08039065 45.35004331 -0.79467473
X -7.91443523 32.67983758 -42.77850237
X -15.25152019 27.72434189 10.09861870
X -11.29430258 30.59942878 10.09861742
X -21.65443279 21.48302924 -24.35813661
X -34.46025800 8.01819230 -14.25949950
X -12.80582520 15.05414031 -22.58123232
X -34.46025800 29.80476909 -1.58932226
X -32.01456301 15.54527838 10.09862415
X -23.16595542 31.88518877 -30.10831504
X -17.69721518 41.98383596 5.93774751
X -23.16595542 5.93775166 -32.67985934
X -22.58860515 28.51897390 -40.20694463
X -38.41747561 41.98382923 -9.11640290
X -17.69721518 40.39451162 -28.51900989
X -63.09495366 47.43047308 -6.73244191
X -35.97178063 16.83105181 -0.00000751
X -12.80582520 28.51899149 -0.79466721
X -50.28912846 43.26960939 -4.16088416
X -37.48330326 36.53717292 -39.41229373
X -13.73999756 58.32375643 -11.68796608
X -35.03760827 42.47494891 -17.62572526
X -19.20873781 34.76027902 -22.58124112
X -19.20873781 59.11841612 -0.00002640
X -35.97178063 31.88518718 -33.66211788
X -38.41747561 41.98383260 -1.58932769
X 11.87165285 27.23319294 -46.93936477
X -42.37469323 36.53717292 -39.41229373
X -3.37986735 54.95754907 -4.95554385
X -29.56886802 24.05458106 -33.47452190
X -24.10012778 30.59942542 2.57154223
X -20.72026044 52.87711100 -17.62572991
X -41.44052087 52.87711852 -0.79467809
X -46.33191084 35.25140701 -12.48261025
X -41.44052087 31.09054173 -13.46485534
X -21.65443279 27.23322142 16.83103966
X -20.14291017 31.88519133 -24.35814126
X -12.80582520 37.82295052 -40.20694878
X -31.08039065 31.88520222 -0.00001424
X -27.12317304 4.65197407 -31.88520429
X -16.76304282 28.21544890 -26.74210303
X -20.14291017 33.47450143 -21.78658607
X -56.69204106 45.35004331 -0.79467473
X -42.37469323 40.69805164 -8.32174785
X -2.44569499 18.42034767 -29.31365455
X -46.33191084 26.92967804 -10.89329759
X -35.97178063 45.35002492 -41.98385356
X -15.25152019 3.36620063 -21.78657263
X -52.73482345 46.63581003 -25.94745679
X -46.33191084 59.60953659 -6.73244735
X -35.97178063 64.56505739 -3.36623920
X -29.56886802 40.69803661 -41.98385148
X -8.84860759 23.07233261 -36.84073183
X -6.40291260 46.63581339 -18.42038159
X -7.33708496 25.15276990 -25.94744719
X -43.88621586 30.29587531 -40.20694541
X -30.50304038 44.55538619 -6.73244062
X -40.86317060 38.61761693 -13.46485870
X -37.48330326 32.37630508 -46.14471260
X -32.94873537 14.25948319 -28.51899822
X -36.90595299 33.17097309 -15.84881968
X -24.10012778 18.11681181 -40.20693998
X -39.92899824 11.38438958 -43.57314733
X -7.91443523 37.82296811 -0.79467136
X -36.90595299 50.79668795 3.36618767
X -16.76304282 50.00201402 -40.20695421
X -35.97178063 31.88519885 -7.52708944
X -12.80582520 44.55537611 -29.31366622
X 7.91443523 17.62570143 -10.89329344
X -19.20873781 17.13457423 -19.21502288
X -19.20873781 23.86700655 6.73241007
X -37.48330326 36.53718716 -7.52709152
X -40.86317060 18.42035439 -14.25950415
X -19.20873781 44.06426987 9.30395694
X -19.20873781 23.86699566 -17.62571695
X -2.44569499 40.20692287 -20.19728013
X -33.52608564 31.09054173 -13.46485534
X -38.41747561 22.76881772 -0.79466464
X -21.65443279 51.59133499 -13.27727202
X -23.16595542 42.77848220 -12.48261361
X -27.12317304 39.90340203 2.57153807
X -11.87165285 27.23320303 -24.35813918
X -33.52608564 13.46481934 -49.51091452
X -29.56886802 8.01818479 -31.09055132
X -8.84860759 12.17905006 -30.10830624
X -14.31734783 37.33183677 -18.42037743
X -50.28912846 32.37632268 -6.73243518
X -34.46025800 12.17905679 -15.05415584
X -6.40291260 29.01011532 -0.00001296
X -20.14291017 42.77847132 -36.84074063
X -23.16595542 30.29588203 -25.15279501
X -35.97178063 27.72432686 -23.56348492
X -28.05734540 20.99191966 6.73241135
X -36.90595299 50.79667708 -20.99193934
X -46.33191084 50.30555660 -14.25951839
X -44.82038822 22.27769389 -1.58931889
X -37.48330326 51.59134507 9.30395358
X -25.61165041 55.44866122 -30.29591803
X -37.48330326 38.12649389 -12.48261153
X -40.86317060 23.56346396 -19.21502576
X -14.31734783 35.74253083 -11.68795600
X -42.37469323 18.91148573 3.36620191
X -29.56886802 20.50079168 -3.36621952
X -11.29430258 54.95753483 -36.84074607
X -44.82038822 26.43853998 -43.57315406
X -34.46025800 25.64389373 -25.15279294
X -44.82038822 48.22510845 -49.51093004
X -11.29430258 18.11682189 -17.62571438
X -3.37986735 54.95755580 10.09860655
X -32.01456301 44.06424476 -46.93937229
X -28.63469567 44.55537611 -29.31366622
X 9.42595786 26.43855342 -13.46485326
X -27.12317304 44.06425564 -22.58124527
X -44.82038822 8.81284527 -17.62571023
X -21.65443279 49.01976556 -43.57316414
X -18.27456545 49.51089691 -25.94745807
X -43.88621586 45.35003323 -23.37590032
X -34.46025800 36.53716955 -46.93936893
X -14.31734783 33.17097229 -17.62572110
X -24.10012778 34.76027150 -39.41229294
X -42.37469323 40.69804077 -32.67987486
X -18.27456545 52.08246138 -6.73244399
X -30.50304038 37.82297148 6.73240383
X -32.01456301 46.63579914 -50.30558380
X -33.52608564 20.19723821 -53.67178236
X -39.92899824 39.90338779 -29.31366415
X -44.82038822 50.79667035 -36.04608974
X -29.56886802 23.07232846 -46.14470845
X -42.37469323 58.32374970 -26.74211648
X -23.16595542 16.83104173 -22.58123312
X -2.44569499 20.99191966 6.73241135
X -50.28912846 43.26960603 -11.68795936
X -12.80582520 20.19725997 -4.95552833
X -52.73482345 61.68996714 -10.89331311
X -11.29430258 33.17097565 -10.09864590
X -28.05734540 38.61760605 -37.82298572
X -44.82038822 4.65197822 -22.58122767
X 3.95721762 47.43046971 -14.25951711
X -21.65443279 39.10873067 -35.25143005
X -4.89138997 32.67985518 -3.36622496
X -8.84860759 32.37631932 -14.25951039
X -7.91443523 52.87711436 -10.09865470
X 9.42595786 46.63581003 -25.94745679
X -34.46025800 23.07233934 -21.78658142
X -44.82038822 12.97370976 -18.42036656
X -25.61165041 32.67984510 -25.94745055
X -19.20873781 65.85083836 3.36618096
X 3.95721762 23.07233934 -21.78658142
X -31.08039065 23.56345308 -43.57315277
X -10.36013022 36.04604910 -40.20694798
X -37.48330326 32.37631932 -14.25951039
X -39.92899824 44.06426236 -7.52709488
X -20.72026044 39.41226397 -30.10831839
X -15.25152019 25.15276990 -25.94744719
X -32.01456301 8.81285279 -0.79465840
X -23.16595542 3.36620400 -14.25949743
X -10.36013022 56.24332587 -7.52710032
X -34.46025800 20.50077823 -33.47452032
X -16.18569255 23.86698895 -32.67986735
X -15.25152019 36.04604494 -49.51092460
X -42.37469323 12.17904927 -31.88520766
X -0.93417236 58.32375643 -11.68796608
X -48.77760583 14.25949071 -11.68794641
X -15.25152019 12.67018397 -6.73242638
X -15.25152019 3.36619391 -36.84072302
X -10.36013022 42.77847725 -23.56349164
X -3.95721762 65.05617114 -25.15281055
X -50.28912846 23.07234606 -6.73243103
X -25.61165041 51.28779754 -27.72436028
X -33.52608564 44.55536859 -46.14471804
X -34.46025800 38.12649310 -14.25951295
X 1.51152263 15.54526750 -14.25950287
X -29.56886802 8.01818222 -36.84072511
X -11.87165285 40.69804749 -17.62572447
X -35.03760827 35.74251995 -36.04608302
X -52.73482345 39.90340540 10.09861326
X -19.20873781 37.33184429 -1.58932562
X -29.56886802 58.32374970 -26.74211648
X -42.37469323 47.43046971 -14.25951711
X -24.10012778 35.74252668 -20.99193261
X -39.92899824 29.01011197 -7.52708816
X -32.01456301 30.59942126 -6.73243439
X -29.56886802 10.58973660 -40.20693662
X -8.84860759 43.26959931 -26.74210976
X -4.89138997 43.57313102 -25.15280095
X 3.95721762 44.85889772 -50.30558301
X -67.05217128 21.78655503 -36.04607678
X -31.08039065 16.83103422 -39.41228493
X -47.26608320 36.53717707 -30.10831711
X -35.03760827 28.02786688 -3.36622288
X -38.41747561 50.30554653 -36.84074399
X -42.37469323 16.33991374 -32.67986398
X -33.52608564 37.82296139 -15.84882176
X -0.93417236 33.96561853 -36.04608221
X -20.72026044 48.71624315 -24.35814878
X -0.93417236 50.00202411 -17.62572862
X -32.01456301 50.79666619 -45.35006636
X -48.77760583 45.35003659 -15.84882512
X -9.78277995 20.19724157 -46.14470716
X -60.64925868 30.59941118 -29.31365999
X -24.10012778 19.70613871 -0.00000880
X -24.10012778 26.43854670 -28.51900366
X 11.87165285 40.69804749 -17.62572447
X -17.69721518 20.19725165 -23.56348156
X -17.69721518 46.14468204 -36.04608766
X -32.01456301 35.74253419 -4.16088080
X -15.25152019 58.81486938 -35.25143884
X -36.90595299 35.74252411 -26.74210640
X -25.61165041 31.09053837 -20.99193054
X -38.41747561 55.44866875 -13.46486622
X -19.20873781 39.90338779 -29.31366415
X -35.97178063 49.51091115 5.93774414
X -13.73999756 47.43047050 -12.48261569
X -20.14291017 37.02829754 -36.84073806
X -47.84343347 54.95755243 2.57153134
X 1.51152263 23.86699566 -17.62571695
X -47.84343347 39.90338779 -29.31366415
X -21.65443279 28.21544811 -28.51900445
X -29.56886802 50.00202411 -17.62572862
X -0.93417236 36.53717628 -31.88521853
X -28.05734540 60.40418955 -10.09865807
X -33.52608564 37.82296059 -17.62572318
X -24.67747805 31.39407087 -17.62572031
X -8.84860759 54.16289531 -3.36623455
X -12.80582520 70.50281914 -13.46487294
X -11.29430258 52.38598045 -33.47453456
X 9.42595786 26.43854333 -36.04607886
X -38.41747561 52.87709676 -49.51093212
X -8.84860759 23.07234606 -6.73243103
X -17.69721518 17.62570478 -3.36621824
X -56.69204106 18.42035103 -21.78657935
X -25.61165041 41.98382844 -10.89330432
X -16.76304282 58.32374555 -36.04609310
X 3.95721762 54.16288522 -25.94746015
X -0.93417236 31.39407423 -10.09864511
X -32.01456301 76.74411418 -18.42039504
X -25.61165041 72.09211915 -33.47454336
X -13.73999756 40.69803740 -40.20695005
X -11.29430258 24.84923403 -36.84073262
X -20.14291017 27.72431341 -53.67178572
X -3.95721762 23.07234606 -6.73243103
X -11.29430258 46.63579914 -50.30558380
X -0.93417236 27.23319294 -46.93936477
X -47.84343347 23.86698559 -40.20694254
X -26.54582277 12.17905263 -24.35813245
X -3.95721762 51.59132668 -31.88522526
X -43.88621586 36.04605245 -32.67987278
X -6.40291260 37.33183598 -20.19727885
X -25.61165041 31.09053916 -19.21502912
X -21.65443279 47.43047388 -4.95554049
X -21.65443279 29.80476078 -20.19727549
X -15.25152019 53.67176812 -11.68796400
X -33.52608564 37.82294972 -41.98385020
X -60.64925868 44.06426572 -0.00001968
X -35.97178063 40.20691694 -33.47452911
X 0.00000000 63.77038347 -46.93938109
X -28.63469567 17.62568719 -42.77849565
X -33.52608564 41.98383596 5.93774751
X -28.05734540 31.88518797 -31.88521646
X -28.05734540 27.72432013 -38.61763532
X -12.80582520 26.92967884 -9.11639617
X -46.33191084 41.98381420 -42.77850652
X -3.37986735 42.47494554 -25.15280046
X -30.50304038 33.66209691 -15.05416544
X -43.88621586 60.40418362 -23.37590704
X -17.69721518 52.87710427 -32.67988030
X -35.97178063 46.93934174 -24.35814798
X -4.89138997 59.60952314 -36.84074815
X -33.52608564 43.57313102 -25.15280095
X -8.84860759 33.96562525 -20.99193182
X -34.46025800 16.33991039 -40.20693918
X -7.33708496 33.47450815 -6.73243567
X -14.31734783 39.90339788 -6.73243855
X -16.76304282 1.28577343 -10.09863166
X -48.77760583 46.93934509 -16.83107278
X -23.16595542 19.40259948 -18.42036942
X -42.37469323 29.80476829 -3.36622368
X -34.46025800 20.50078159 -25.94744512
X -6.40291260 39.90339452 -14.25951375
X -38.41747561 52.87711436 -10.09865470
X -34.46025800 36.53719468 9.30396030
X -27.12317304 45.65356493 -21.78659152
X -0.93417236 33.96562269 -26.74210560
X -21.65443279 38.12649053 -20.00968673
X -21.65443279 38.12649310 -14.25951295
X -7.33708496 20.99190541 -25.15279086
X -31.08039065 47.92158009 -43.57316365
X -41.44052087 30.10829407 -15.05416384
X -15.25152019 42.77847132 -36.84074063
X -59.13773605 52.87710427 -32.67988030
X -25.61165041 25.94744047 10.09861950
X -44.82038822 50.79666699 -43.57316494
X -56.69204106 38.61761099 -26.74210768
X -23.16595542 38.61760605 -37.82298572
X -25.61165041 10.89326911 -36.84072639
X -8.84860759 5.44663119 -25.94743840
X -14.31734783 39.90339531 -12.48261232
X -4.89138997 28.51898062 -25.15279422
X -11.29430258 31.58165627 -33.47452527
X -47.26608320 33.96561853 -36.04608221
X -16.76304282 23.07232846 -46.14470845
X 5.46874024 38.61761772 -11.68795728
X -36.90595299 50.79667787 -19.21503792
X -46.33191084 15.05414031 -22.58123232
X -36.90595299 50.79667451 -26.74211311
X -24.10012778 54.95754828 -6.73244527
X -19.20873781 22.27768221 -27.72434733
X -32.94873537 34.45675324 -10.89330095
X 9.42595786 30.59940782 -36.84073519
X -22.23178306 19.70612782 -24.35813582
X -51.22330082 37.82296139 -15.84882176
X 1.51152263 46.63582011 -3.36623119
X -29.56886802 16.33992384 -10.09863839
X -13.73999756 50.00201738 -32.67987902
X -23.16595542 38.61760268 -45.35006091
X -48.77760583 42.77847468 -29.31366543
X -48.77760583 25.15275902 -50.30557420
X -48.77760583 45.35002907 -32.67987694
X -63.09495366 40.69803740 -40.20695005
X -18.27456545 18.42034767 -29.31365455
X -26.54582277 23.07233598 -29.31365662
X -34.46025800 31.39407087 -17.62572031
X -2.44569499 10.09862622 -10.89329007
X -51.22330082 13.46483774 -8.32173568
X -11.29430258 12.97371311 -10.89329136
X -33.52608564 44.55538619 -6.73244062
X -40.86317060 3.36619727 -29.31364783
X -27.12317304 15.54524990 -53.67178028
X -32.94873537 45.35003659 -15.84882512
X -54.24634608 17.62569054 -35.25142045
X -29.56886802 29.80474654 -52.08247771
X -12.80582520 13.46484110 -0.79466049
X -15.25152019 22.58121887 -15.05416048
X -25.61165041 70.50281914 -13.46487294
X -17.69721518 39.41227485 -5.75019138
X -41.44052087 25.94741951 -36.84073311
X -3.95721762 44.85891117 -20.19728221
X -17.69721518 19.21500815 -15.84881345
X -50.28912846 47.43045963 -36.84074270
X -14.31734783 22.27768973 -10.89329551
X 3.02304526 39.41227742 -0.00001760
X -21.65443279 32.37631516 -23.56348700
X -34.46025800 55.75219788 -17.62573119
X -32.01456301 59.11840860 -16.83107822
X -59.13773605 46.14468204 -36.04608766
X -8.84860759 29.80475406 -35.25142589
X -4.89138997 35.25141036 -4.95553505
X -36.90595299 8.81284863 -10.09863503
X -19.20873781 29.01010781 -16.83106477
X -42.37469323 33.96561438 -45.35005884
X -25.61165041 47.73398462 -50.30558429
X -28.63469567 41.98382508 -18.42037952
X -34.46025800 54.16287434 -50.30558716
X -37.48330326 8.01817470 -53.67177692
X -46.33191084 35.25139613 -36.84073726
X -43.88621586 22.58122560 -0.00001008
X -33.52608564 47.73399550 -25.94745728
X -43.30886559 17.62569471 -25.94744383
X -35.97178063 60.40419707 6.73239376
X -42.37469323 40.69805501 -0.79467265
X 9.42595786 50.79668123 -11.68796272
X -8.84860759 47.43047388 -4.95554049
X -42.37469323 38.12648638 -29.31366335
X -23.16595542 49.51089948 -20.19728429
X -7.33708496 37.02830427 -21.78658766
X 1.51152263 23.86698895 -32.67986735
X -34.46025800 50.00201738 -32.67987902
X -12.80582520 31.09055676 20.19724829
X -25.61165041 35.25139949 -29.31366207
X -21.65443279 27.23319967 -31.88521437
X -16.18569255 54.95755580 10.09860655
X -44.82038822 29.01011197 -7.52708816
X -11.29430258 39.90339868 -4.95553713
X -12.80582520 44.55537274 -36.84074142
X -33.52608564 31.09052749 -45.35005755
X -8.84860759 16.33992384 -10.09863839
X -23.16595542 38.61763196 20.19724494
X -39.92899824 44.06425900 -15.05417008
X -27.12317304 35.74252411 -26.74210640
X -6.40291260 59.11840188 -31.88522861
X -32.01456301 12.97370304 -33.47451695
X -25.61165041 54.46642109 -15.05417473
X -24.10012778 39.90339116 -21.78658894
X -38.41747561 28.51898477 -15.84881760
X -17.69721518 36.84071966 -4.16088129
X -37.48330326 32.37631516 -23.56348700
X -4.89138997 21.78655839 -28.51900158
X 0.00000000 57.03797468 -20.19728766
X -44.82038822 48.22511596 -32.67987823
X -39.92899824 24.84924748 -6.73243183
X -52.73482345 33.17097644 -8.32174448
X -0.93417236 47.43046299 -29.31366750
X -28.63469567 48.71624058 -30.10832255
X -48.77760583 40.20691950 -27.72435534
X -12.80582520 20.19726332 2.57154687
X -4.89138997 31.09053837 -20.99193054
X -63.09495366 54.16288858 -18.42038495
X -6.40291260 57.52909930 -17.62573198
X -63.09495366 16.33991374 -32.67986398
X -20.72026044 39.41225982 -39.41229501
X -17.69721518 6.73240463 -36.04607006
X -63.09495366 54.16289195 -10.89330975
X -15.25152019 20.99191630 -0.79466385
X -29.56886802 -2.87510449 -39.41227613
X -21.65443279 9.60749567 -26.74209472
X -13.73999756 38.12649310 -14.25951295
X -38.41747561 33.66209019 -30.10831583
X -28.05734540 11.68794304 6.73241551
X -16.18569255 15.54524990 -53.67178028
X -26.54582277 29.80475821 -25.94744927
X -12.80582520 39.41226653 -24.35814461
X -21.65443279 33.96561517 -43.57315742
X -52.73482345 46.63582011 -3.36623119
X -22.23178306 44.06425564 -22.58124527
X -15.82887046 35.25140285 -21.78658687
X -51.22330082 52.87710763 -25.15280510
X -32.01456301 29.01010108 -31.88521517
X -12.80582520 9.30397326 -7.52707936
X -56.69204106 36.04604910 -40.20694798
X -16.76304282 29.80477245 5.93775295
X -29.56886802 35.55493199 -25.94745184
X -31.08039065 52.08245803 -14.25951919
X -11.29430258 15.54526414 -21.78657807
X -31.08039065 40.20692702 -10.89330351
X -23.16595542 44.36778062 -36.04608686
X -12.80582520 41.98381836 -33.47452991
X -55.18051843 25.64390797 6.73240928
X -29.56886802 39.10873740 -20.19727964
X -42.37469323 32.37632268 -6.73243518
X -42.37469323 54.16288443 -27.72436157
X -25.61165041 61.19883996 -19.21504257
X -29.56886802 65.05617114 -25.15281055
X -42.37469323 12.17904255 -46.93935805
X -41.44052087 20.19724829 -31.09055676
X 1.51152263 41.49269037 -43.57316078
X -16.76304282 43.26960939 -4.16088416
X -21.65443279 38.12647886 -46.14471517
X -39.92899824 37.33183756 -16.64347602
X -25.61165041 55.44866875 -13.46486622
X -35.97178063 40.20691950 -27.72435534
X -20.72026044 46.14468204 -36.04608766
X -29.56886802 32.37630171 -53.67178780
X -9.78277995 13.46482606 -34.45676411
X -28.05734540 30.29588876 -10.09864462
X -34.46025800 29.80476493 -10.89329887
X -29.56886802 62.48461339 -29.31367423
X -46.33191084 35.25140285 -21.78658687
X -38.41747561 35.25140364 -20.00968545
X -32.01456301 37.33183341 -25.94745264
X 11.87165285 43.26960603 -11.68795936
X -47.84343347 46.63581003 -25.94745679
X -2.44569499 34.45674988 -18.42037615
X -48.77760583 34.45676076 5.93775086
X -8.84860759 62.48462347 -6.73244863
X -29.56886802 36.53718795 -5.75019010
X -32.94873537 14.25948655 -20.99192302
X -28.05734540 38.61760684 -36.04608430
X -23.16595542 12.67017389 -29.31365198
X -32.01456301 63.27927644 -10.09865935
X -31.08039065 30.29587867 -32.67987022
X -11.29430258 29.01009772 -39.41229037
X -21.65443279 18.91146062 -52.87712731
X -13.73999756 36.53718044 -22.58124191
X 5.46874024 56.24332250 -15.05417551
X -54.24634608 41.98381836 -33.47452991
X -8.84860759 36.53719052 -0.00001631
X -25.61165041 16.03638461 -28.51899901
X -20.72026044 52.87711852 -0.79467809
X -6.40291260 26.43855085 -19.21502704
X -34.46025800 55.75220125 -10.09865599
X -6.40291260 72.58324970 -17.62573871
X -39.92899824 15.54525742 -36.84072846
X -11.29430258 19.70613119 -16.83106062
X -23.16595542 16.83104846 -7.52708271
X -52.73482345 35.74252747 -19.21503119
X -2.44569499 56.24331835 -24.35815213
X -39.92899824 17.13457760 -11.68794769
X -24.10012778 4.65197071 -39.41227949
X -35.97178063 23.56346396 -19.21502576
X -35.03760827 42.47494554 -25.15280046
X -4.89138997 13.46483694 -10.09863710
X -20.72026044 24.35812365 -7.52708608
X -12.80582520 66.34194457 -35.25144221
X -43.88621586 33.47450479 -14.25951088
X -12.80582520 20.19725581 -14.25950495
X -7.33708496 25.15277998 -3.36622159
X -25.61165041 15.05415039 -0.00000672
X -48.77760583 36.04604494 -49.51092460
X -19.20873781 56.54684077 -43.57316750
X -16.76304282 43.26960266 -19.21503456
X -12.80582520 16.03639213 -11.68794720
X 3.02304526 32.67985518 -3.36622496
X -21.65443279 50.00202411 -17.62572862
X -42.37469323 33.96561517 -43.57315742
X -24.10012778 29.01010524 -22.58123856
X -22.23178306 44.06425900 -15.05417008
X -20.72026044 24.35811693 -22.58123647
X -32.01456301 64.26151402 -31.09057644
X -25.61165041 25.94742702 -20.00968130
X -7.33708496 23.56345644 -36.04607757
X -28.05734540 36.04604494 -49.51092460
X -16.18569255 48.22512012 -23.37590161
X -56.69204106 38.61760684 -36.04608430
X -19.20873781 17.13457760 -11.68794769
X -32.01456301 42.47494219 -32.67987565
X -13.73999756 32.37630923 -36.84073598
X -31.08039065 14.25948319 -28.51899822
X -8.84860759 36.53718044 -22.58124191
X -6.40291260 22.27769053 -9.11639409
X -16.76304282 16.33993135 6.73241343
X -44.82038822 24.84925500 10.09861999
X -12.80582520 46.14468460 -30.29591388
X -34.46025800 31.39406415 -32.67987071
X -6.40291260 22.27769310 -3.36622031
X -38.41747561 15.05413695 -30.10830752
X -16.76304282 38.12648223 -38.61763997
X -52.73482345 34.76028159 -16.83106733
X -23.16595542 56.24330826 -46.93937773
X -50.28912846 31.39407423 -10.09864511
X -42.37469323 43.26959931 -26.74210976
X -35.97178063 20.99189454 -49.51091788
X -23.16595542 14.25949743 3.36620400
X -23.16595542 31.88520222 -0.00001424
X -34.46025800 21.48302668 -30.10831039
X -15.25152019 67.13660842 -14.25952591
X -16.18569255 37.33183341 -25.94745264
X -24.10012778 23.86700655 6.73241007
X -25.61165041 47.73399550 -25.94745728
X -38.41747561 37.82296811 -0.79467136
X -28.05734540 30.29587867 -32.67987022
X -32.01456301 54.95755580 10.09860655
X -15.25152019 42.77848141 -14.25951503
X -29.56886802 44.85891276 -16.64347937
X -8.84860759 33.96561853 -36.04608221
X -25.61165041 52.87711179 -15.84882849
X -41.44052087 13.46481598 -57.03798971
X -43.30886559 48.71624395 -22.58124736
X -16.76304282 65.05616442 -40.20696094
X -43.88621586 31.88519470 -16.83106606
X -17.69721518 13.46481598 -57.03798971
X -19.20873781 59.11839852 -39.41230382
X -29.56886802 5.44662783 -33.47451359
X -39.92899824 18.11682189 -17.62571438
X -8.84860759 55.75219116 -32.67988158
X -28.99151776 39.90338779 -29.31366415
X -8.84860759 12.17905599 -16.83105726
X -38.41747561 70.50281578 -20.99194814
X -7.33708496 34.45674908 -20.19727757
X -11.29430258 34.76026815 -46.93936813
X -10.36013022 20.99190541 -25.15279086
X 15.82887046 21.78655503 -36.04607678
X -35.97178063 49.51089948 -20.19728429
X -24.10012778 44.06426652 1.77688174
X -55.18051843 38.12647886 -46.14471517
X -32.01456301 65.85083836 3.36618096
X -32.01456301 15.54526078 -29.31365327
X -25.61165041 -8.32174241 -28.51898814
X -14.31734783 39.90339195 -20.00968752
X -24.67747805 12.17905263 -24.35813245
X -19.20873781 6.24129168 -12.48259730
X -36.90595299 50.79668459 -4.16088753
X -21.65443279 51.59132668 -31.88522526
X -11.87165285 43.26960939 -4.16088416
X -11.87165285 40.69804077 -32.67987486
X -28.05734540 45.35004331 -0.79467473
X -7.33708496 42.77848477 -6.73243983
X -0.93417236 29.80476078 -20.19727549
X -33.52608564 22.76880011 -40.20694205
X -19.20873781 18.11682268 -15.84881296
X -4.89138997 24.35811357 -30.10831167
X -56.69204106 45.35003659 -15.84882512
X -28.99151776 19.70612447 -31.88521101
X -44.82038822 61.68995963 -27.72436493
X -25.61165041 16.03638876 -19.21502239
X -17.69721518 41.00157663 -21.78658943
X -42.37469323 18.91148238 -4.16087328
X -48.77760583 56.24330826 -46.93937773
X -20.14291017 23.56346653 -13.46485198
X -2.44569499 29.31364031 -13.46485454
X -4.89138997 21.78655918 -26.74210016
X -38.41747561 46.14467452 -52.87713948
X -59.13773605 24.35811357 -30.10831167
X -35.97178063 22.58121551 -22.58123568
X -2.44569499 38.61761020 -28.51900910
X -43.88621586 41.18916459 -31.88522061
X -35.97178063 52.08245130 -29.31366958
X -63.09495366 16.33992047 -17.62571358
X -35.97178063 60.40418699 -15.84883185
X -46.33191084 48.71624651 -16.83107357
X -9.78277995 48.71624730 -15.05417216
X -24.67747805 36.53719052 -0.00001631
X -40.86317060 46.93933165 -46.93937357
X -35.97178063 25.15277998 -3.36622159
X -39.92899824 35.74253004 -13.46485742
X -33.52608564 29.50122907 -21.78658430
X -23.16595542 57.83263517 -6.73244656
X -12.80582520 13.46483774 -8.32173568
X -16.76304282 40.69805836 6.73240255
X -19.20873781 15.54526414 -21.78657807
X -31.08039065 47.92158682 -28.51901325
X -3.95721762 54.16289531 -3.36623455
X -16.76304282 43.26961275 3.36619104
X -8.84860759 23.07234013 -20.00968000
X -24.67747805 16.33991374 -32.67986398
X -51.22330082 20.19725660 -12.48260353
X -16.76304282 51.59132332 -39.41230045
X -40.86317060 60.40417610 -40.20695886
X -43.30886559 41.98381836 -33.47452991
X -27.12317304 39.90339868 -4.95553713
X -25.61165041 -1.58931682 -17.62570558
X -30.50304038 28.51898477 -15.84881760
X -47.26608320 65.05617114 -25.15281055
X -6.40291260 4.65198159 -15.05415248
X -48.77760583 62.97573722 -28.51901998
X -22.58860515 25.94741951 -36.84073311
X -29.56886802 17.32216556 -21.78657886
X 3.95721762 43.26960939 -4.16088416
X -44.82038822 -2.08043392 -3.36620944
X -23.16595542 3.36620735 -6.73242223
X -12.80582520 32.67984094 -35.25142717
X -21.65443279 27.23320718 -15.05416256
X 1.51152263 50.79668043 -13.46486414
X -36.90595299 29.01011197 -7.52708816
X -8.84860759 65.05616777 -32.67988574
X -15.25152019 22.58121215 -30.10831088
X -25.61165041 70.50281578 -20.99194814
X -28.05734540 26.13501835 -22.58123727
X -19.20873781 30.59940030 -53.67178700
X -25.61165041 43.57312013 -49.51092796
X -34.46025800 12.17904590 -39.41228285
X -42.37469323 38.12648895 -23.56348957
X -47.26608320 58.32374218 -43.57316829
X -15.25152019 10.09861950 -25.94744047
X -25.61165041 31.09055340 12.67017310
X 15.82887046 28.51898398 -17.62571903
X -32.01456301 18.11682941 -0.79466256
X -35.03760827 28.02786351 -10.89329808
X -29.56886802 54.16288106 -35.25143677
X -47.26608320 44.85890781 -27.72435741
X -16.76304282 47.43048060 10.09860991
X -17.69721518 52.87711100 -17.62572991
X -13.73999756 8.01817806 -46.14470172
X -13.73999756 14.75060029 -42.77849437
X -51.22330082 31.09054252 -11.68795392
X -25.61165041 50.30555245 -23.56349501
X -39.92899824 33.17098316 6.73240591
X -33.52608564 13.46483022 -25.15278750
X -38.41747561 17.62569054 -35.25142045
X -17.69721518 32.67984926 -16.64347394
X -11.29430258 4.65198079 -16.83105389
X -35.97178063 34.45674573 -27.72435277
X -33.52608564 32.67985261 -9.11639874
X -15.25152019 42.77848477 -6.73243983
X -23.16595542 38.61759933 -52.87713611
X -24.10012778 26.43853582 -52.87713067
X -28.05734540 58.81486601 -42.77851404
X -13.73999756 51.59134092 -0.00002304
X -37.48330326 24.66165280 -11.68795105
X -41.44052087 20.19724494 -38.61763196
X -28.99151776 19.70613119 -16.83106062
X -28.05734540 38.61761772 -11.68795728
X -28.05734540 -0.79467394 -43.57314190
X -39.92899824 4.65197071 -39.41227949
X -33.52608564 15.05415039 -0.00000672
X -44.82038822 30.59941374 -23.56348621
X -32.01456301 7.22353261 -25.94743919
X -24.67747805 50.00202411 -17.62572862
X 9.42595786 37.33184014 -10.89330224
X -34.46025800 12.17904255 -46.93935805
X -31.08039065 10.09862207 -20.19726669
X -63.09495366 29.80475821 -25.94744927
X -27.12317304 44.06426236 -7.52709488
X -44.82038822 39.90339868 -4.95553713
X -16.76304282 16.33991039 -40.20693918
X -39.92899824 57.52908922 -40.20695758
X -7.33708496 29.31363774 -19.21502833
X -18.27456545 38.61761693 -13.46485870
X -16.76304282 51.59132748 -30.10832384
X -4.89138997 33.66210027 -7.52709023
X -51.22330082 17.62569806 -18.42036863
X -6.40291260 39.90340540 10.09861326
X -46.33191084 35.25139949 -29.31366207
X -63.09495366 29.80476493 -10.89329887
X -28.63469567 24.35810941 -39.41228829
X -25.61165041 62.18107001 -57.03801147
X -19.20873781 56.54685421 -13.46486670
X -21.65443279 12.17904255 -46.93935805
X -3.95721762 27.23319967 -31.88521437
X -38.41747561 48.71624730 -15.05417216
X -9.78277995 37.82295052 -40.20694878
X -31.08039065 34.45675324 -10.89330095
X -47.84343347 15.54525662 -38.61762988
X -51.22330082 37.82296811 -0.79467136
X -19.20873781 4.65198079 -16.83105389
X -15.25152019 45.35003323 -23.37590032
X -13.73999756 44.85891196 -18.42038079
X -31.08039065 60.40419707 6.73239376
X 11.87165285 43.26960266 -19.21503456
X -11.29430258 26.43855422 -11.68795184
X -3.95721762 40.69803740 -40.20695005
X -29.56886802 34.94786698 -32.67987229
X -12.80582520 13.46482686 -32.67986271
X -6.40291260 19.70612447 -31.88521101
X -26.54582277 47.43045963 -36.84074270
X -27.12317304 33.17098316 6.73240591
X 0.00000000 63.77039691 -16.83108029
X -15.25152019 64.56504732 -25.94746479
X -4.89138997 46.14469965 3.36618975
X -23.16595542 41.18917132 -16.83107021
X -18.27456545 45.35002907 -32.67987694
X -52.73482345 37.33184349 -3.36622704
X -29.56886802 21.48302589 -31.88521181
X -51.22330082 57.03796124 -50.30558844
X -43.88621586 10.09860862 -50.30556749
X -11.29430258 34.76028910 -0.00001552
X -16.76304282 29.80475069 -42.77850109
X -11.29430258 4.65197743 -24.35812909
X -32.01456301 57.52908170 -57.03800940
X -17.69721518 28.51897982 -26.92969564
X -36.90595299 61.68995707 -33.47453871
X -15.25152019 14.25949407 -4.16087120
X -35.97178063 62.97573722 -28.51901998
X -32.01456301 24.84924827 -4.95553040
X -31.08039065 23.56346317 -20.99192717
X -25.61165041 20.19725660 -12.48260353
X -20.14291017 29.31363695 -20.99192975
X -43.30886559 21.78655839 -28.51900158
X -32.01456301 29.01011612 1.77688846
X -33.52608564 67.93126891 -0.79468481
X -12.80582520 39.41226317 -31.88521981
X -2.44569499 30.29588619 -15.84881840
X 1.51152263 33.17097981 -0.79466929
X -28.05734540 45.35002571 -40.20695214
X -18.27456545 14.25947983 -36.04607341
X -37.48330326 14.75061038 -20.19726877
X -29.56886802 33.96564029 12.67017182
X -24.10012778 41.49270045 -20.99193518
X -37.48330326 62.48462091 -12.48262242
X 1.51152263 30.59940366 -46.14471180
X -43.88621586 30.29587867 -32.67987022
X 1.51152263 57.52909930 -17.62573198
X -6.40291260 -2.08043728 -10.89328464
X -35.97178063 46.93934253 -22.58124656
X -38.41747561 25.94742623 -21.78658271
X -7.33708496 42.77849228 10.09861198
X -34.46025800 49.01977566 -20.99193855
X -20.72026044 41.98382092 -27.72435613
X -36.90595299 19.70612447 -31.88521101
X -47.84343347 23.86698895 -32.67986735
X -27.12317304 41.49270382 -13.46485998
X -43.88621586 20.99190126 -34.45676748
X -29.56886802 23.07233934 -21.78658142
X -47.26608320 16.33992047 -17.62571358
X -6.40291260 30.59941118 -29.31365999
X 11.87165285 29.80476829 -3.36622368
X -44.82038822 22.27767965 -33.47452111
X -3.95721762 27.23320639 -16.83106398
X -0.93417236 58.32376315 3.36618432
X -32.94873537 38.61761693 -13.46485870
X -52.73482345 48.22511933 -25.15280302
X -20.14291017 14.25947647 -43.57314861
X -4.89138997 28.51896974 -49.51092124
X -44.82038822 29.01012284 16.83103886
X -32.01456301 76.74411754 -10.89331984
X -34.46025800 54.16288186 -33.47453535
X -40.86317060 7.52707520 -0.00000336
X -38.41747561 28.51898398 -17.62571903
X -43.88621586 49.51090028 -18.42038287
X -55.18051843 18.91147901 -11.68794848
X -16.76304282 29.80476157 -18.42037407
X -46.33191084 52.87711100 -17.62572991
X -0.00000000 -0.00001008 -22.58122560
X -43.30886559 31.09054925 3.36619648
X -15.25152019 27.72431677 -46.14471052
X -2.44569499 20.99191214 -10.09864046
X -10.36013022 45.35002907 -32.67987694
X -52.73482345 37.33182253 -50.30557964
X -8.84860759 12.17904927 -31.88520766
X -11.29430258 52.38599053 -10.89330896
X -20.14291017 20.99189869 -40.20694126
X -40.86317060 7.52706847 -15.05415376
X -51.22330082 28.51897390 -40.20694463
X -13.73999756 45.84114617 -46.93937308
X -6.40291260 41.49268621 -52.87713739
X -11.29430258 30.59940366 -46.14471180
X -17.69721518 35.25140205 -23.56348829
X -20.14291017 36.04605661 -23.37589617
X -2.44569499 53.67175724 -36.04609102
X -28.05734540 23.56346317 -20.99192717
X -51.22330082 6.73241551 -11.68794304
X -3.37986735 44.06425228 -30.10832048
X -24.67747805 12.17904255 -46.93935805
X -41.44052087 35.25140957 -6.73243647
X -30.50304038 24.35812365 -7.52708608
X 3.02304526 48.71625403 -0.00002176
X -15.25152019 36.04605918 -17.62572238
X -38.41747561 43.57313102 -25.15280095
X -39.92899824 65.85083163 -11.68796945
X -21.65443279 58.32374970 -26.74211648
X -32.01456301 39.90338700 -31.09056556
X -15.25152019 52.08244042 -53.67179660
X -46.33191084 52.87711515 -8.32175328
X -38.41747561 50.30554988 -29.31366879
X -18.27456545 31.88519470 -16.83106606
X 1.51152263 39.90340203 2.57153807
X -30.50304038 41.98382587 -16.64347809
X -8.84860759 58.32375643 -11.68796608
X -12.80582520 9.30396989 -15.05415455
X -8.84860759 44.85891117 -20.19728221
X -29.56886802 51.59131996 -46.93937565
X -33.52608564 20.19724829 -31.09055676
X -37.48330326 23.07234606 -6.73243103
X 3.02304526 17.62569054 -35.25142045
X -11.29430258 46.63580587 -35.25143340
X -33.52608564 32.67984431 -27.72435197
X -20.14291017 42.77847883 -20.00968881
X -24.67747805 29.80476829 -3.36622368
X -32.94873537 41.18916874 -22.58124399
X -29.56886802 29.80473981 -67.13662810
X -7.91443523 32.67984094 -35.25142717
X -22.23178306 33.17096220 -40.20694670
X -4.89138997 59.60953322 -14.25952254
X -39.35164797 43.26960603 -11.68795936
X -48.77760583 56.24331915 -22.58125071
X -24.67747805 27.23321055 -7.52708736
X -10.36013022 53.67175724 -36.04609102
X -36.90595299 34.76027150 -39.41229294
X -44.82038822 -2.08044064 -18.42035983
X -12.80582520 54.46640685 -46.93937694
X -35.97178063 31.88518877 -30.10831504
X -32.94873537 14.25948991 -13.46484783
X -17.69721518 50.30555404 -20.00969217
X -54.24634608 32.67984510 -25.94745055
X -8.84860759 32.37633019 10.09861663
X -19.20873781 18.11681181 -40.20693998
X -39.92899824 39.90339116 -21.78658894
X -38.41747561 46.14468204 -36.04608766
X -46.33191084 46.14468204 -36.04608766
X -35.97178063 34.45673900 -42.77850317
X -8.84860759 42.28735342 -24.35814590
X -52.73482345 33.17097565 -10.09864590
X -11.29430258 54.95755580 10.09860655
X -17.69721518 15.05413695 -30.10830752
X -55.18051843 44.85889772 -50.30558301
X -25.61165041 29.50122907 -21.78658430
X -21.65443279 36.53719804 16.83103550
X -42.37469323 16.33992463 -8.32173697
X -28.63469567 46.14469292 -11.68796065
X -29.56886802 43.26961275 3.36619104
X 5.46874024 34.45675324 -10.89330095
X -42.37469323 14.75060781 -25.94744255
X -24.67747805 50.00201738 -32.67987902
X -35.97178063 18.42036527 10.09862286
X -25.61165041 28.51899149 -0.79466721
X -60.64925868 50.79667451 -26.74211311
X -28.99151776 26.43853998 -43.57315406
X -34.46025800 9.60749567 -26.74209472
X -29.56886802 73.37790683 -11.68797280
X -4.89138997 48.71624651 -16.83107357
X -35.03760827 46.63581003 -25.94745679
X -8.84860759 16.33991374 -32.67986398
X -8.84860759 60.89530666 -24.35815421
X -24.10012778 22.27768973 -10.89329551
X -51.22330082 13.46483101 -23.37588608
X -29.56886802 55.75219532 -23.37590497
X -41.44052087 44.55537274 -36.84074142
X -27.12317304 23.86699647 -15.84881553
X -7.33708496 56.24331578 -30.10832591
X -30.50304038 33.66210027 -7.52709023
X -32.01456301 52.38598637 -20.19728557
X -35.97178063 49.51090443 -9.11640625
X -28.05734540 27.72432765 -21.78658351
X -60.64925868 23.86698895 -32.67986735
X -27.12317304 33.17096557 -32.67987150
X -6.40291260 45.65356415 -23.56349293
X -36.90595299 19.70613198 -15.05415920
X -32.01456301 19.70613535 -7.52708400
X -29.56886802 60.89530666 -24.35815421
X -17.69721518 28.51899149 -0.79466721
X 3.95721762 51.59133004 -24.35815006
X -28.05734540 41.18916538 -30.10831919
X -31.08039065 16.83104430 -16.83105933
X -16.18569255 22.27767214 -50.30557292
X -32.01456301 48.22510845 -49.51093004
X -8.84860759 23.07235022 2.57154558
X -29.56886802 66.64548796 -7.52710496
X -10.36013022 27.72434189 10.09861870
X -29.56886802 29.80474317 -59.60955290
X -20.72026044 31.09054173 -13.46485534
X -16.76304282 12.17905006 -30.10830624
X 5.46874024 14.25948319 -28.51899822
X -30.50304038 24.35811949 -16.83106269
X -36.90595299 39.90338779 -29.31366415
X -6.40291260 30.59942126 -6.73243439
X -33.52608564 28.51898734 -10.09864383
X -33.52608564 17.62570478 -3.36621824
X -44.82038822 46.63581003 -25.94745679
X -20.72026044 48.71624730 -15.05417216
X -3.37986735 48.22512348 -15.84882640
X 0.00000000 46.14468876 -20.99193726
X -12.80582520 43.57313102 -25.15280095
X -39.35164797 47.43046299 -29.31366750
X -21.65443279 36.53719132 1.77688511
X -56.69204106 38.61761693 -13.46485870
X -28.05734540 16.83103757 -31.88520973
X -60.64925868 37.33183341 -25.94745264
X -25.61165041 43.57313102 -25.15280095
X -21.65443279 44.85892285 5.93774622
X -28.05734540 40.20691614 -35.25143054
X -9.78277995 30.10828735 -30.10831424
X -15.25152019 38.61761436 -19.21503248
X -38.41747561 31.09055340 12.67017310
X -44.82038822 41.49269709 -28.51901038
X -25.61165041 33.66208603 -39.41229244
X -56.69204106 41.18917883 -0.00001840
X -46.33191084 28.51896974 -49.51092124
X 3.95721762 54.16288186 -33.47453535
X -13.73999756 44.85892285 5.93774622
X -25.61165041 46.14468125 -37.82298908
X -50.28912846 51.59134092 -0.00002304
X -9.78277995 24.35810605 -46.93936349
X -10.36013022 45.35003995 -8.32174993
X -6.40291260 29.01010939 -13.27726193
X -38.41747561 26.92966796 -33.47452318
X -25.61165041 26.92968140 -3.36622239
X -51.22330082 32.67984431 -27.72435197
X -42.37469323 36.53717707 -30.10831711
X -15.25152019 12.67017052 -36.84072718
X -15.25152019 38.61759596 -60.40421131
X -19.20873781 19.70613198 -15.05415920
X -24.67747805 27.23321390 -0.00001216
X -17.69721518 15.05414031 -22.58123232
X -29.56886802 33.96561517 -43.57315742
X -43.88621586 52.08245803 -14.25951919
X -46.33191084 24.35811357 -30.10831167
X -44.82038822 52.38598301 -27.72436077
X -22.23178306 37.33183004 -33.47452783
X -26.54582277 44.85891869 -3.36623039
X 3.02304526 41.98383181 -3.36622911
X -35.97178063 18.42036191 2.57154767
X -29.56886802 28.21546235 3.36619776
X -22.23178306 26.43855006 -20.99192846
X -35.39443036 35.25140285 -21.78658687
X -52.73482345 35.74253083 -11.68795600
X -4.89138997 59.60953659 -6.73244735
X -29.56886802 28.21544890 -26.74210303
X -25.61165041 24.35811278 -31.88521309
X -29.56886802 -2.87509441 -16.83105053
X -35.97178063 10.09862959 -3.36621487
X -16.76304282 47.43047050 -12.48261569
X -43.30886559 31.09054588 -4.16087873
X -11.29430258 11.38439294 -36.04607214
X -2.44569499 38.61762108 -4.16088208
X -0.93417236 16.33992384 -10.09863839
X -40.86317060 27.72433517 -4.95553169
X 5.46874024 36.04605582 -25.15279759
X -16.76304282 47.43045211 -53.67179453
X -19.20873781 26.43853998 -43.57315406
X -31.08039065 41.18917211 -15.05416879
X -42.37469323 18.91147901 -11.68794848
X -41.44052087 25.94742623 -21.78658271
X -31.08039065 33.47450143 -21.78658607
X -19.20873781 33.17098396 8.50930733
X -0.93417236 12.17904255 -46.93935805
X -23.16595542 46.93934174 -24.35814798
X -0.93417236 12.17904590 -39.41228285
X -38.41747561 13.46482686 -32.67986271
X -32.94873537 25.15277998 -3.36622159
X -27.12317304 33.17096892 -25.15279631
X -34.46025800 1.28576671 -25.15278206
X -18.27456545 31.88520222 -0.00001424
X -20.14291017 49.51089355 -33.47453327
X -29.56886802 21.48304013 -0.00000959
X -46.33191084 10.89328255 -6.73242559
X -13.73999756 38.12649725 -4.95553634
X -30.50304038 41.98381420 -42.77850652
X -38.41747561 32.67984431 -27.72435197
X -32.01456301 52.38598045 -33.47453456
X -40.86317060 14.25948655 -20.99192302
X -0.93417236 18.91146477 -43.57315069
X -29.56886802 40.69805501 -0.79467265
X -25.61165041 17.62569471 -25.94744383
X -28.63469567 52.87711515 -8.32175328
X -35.97178063 53.67175724 -36.04609102
X -47.26608320 51.59132668 -31.88522526
X -35.03760827 41.49270798 -4.16088337
X -34.46025800 8.01818222 -36.84072511
X 1.51152263 46.63581339 -18.42038159
X -20.14291017 30.29588876 -10.09864462
X -23.16595542 64.56504395 -33.47453999
X -60.64925868 50.79667787 -19.21503792
X -46.33191084 46.14469212 -13.46486206
X -20.72026044 39.41227742 -0.00001760
X -12.80582520 20.19725660 -12.48260353
X 3.95721762 47.43045963 -36.84074270
X -29.56886802 34.94786362 -40.20694749
X -10.36013022 49.51089355 -33.47453327
X -35.97178063 23.56346733 -11.68795056
X -32.94873537 38.61762108 -4.16088208
X -31.08039065 18.42035103 -21.78657935
X -6.40291260 23.86699231 -25.15279215
X -39.92899824 48.22513020 -0.79467601
X -50.28912846 40.69804749 -17.62572447
X -28.05734540 46.93934509 -16.83107278
X -37.48330326 44.85891276 -16.64347937
X -44.82038822 59.11839515 -46.93937901
X -20.72026044 44.55538283 -14.25951582
X -32.94873537 49.51090363 -10.89330767
X -19.20873781 57.52909594 -25.15280718
X -26.54582277 47.43047388 -4.95554049
X -23.16595542 46.93934253 -22.58124656
X -40.86317060 41.18916538 -30.10831919
X -20.14291017 29.31364783 3.36619727
X -38.41747561 28.51896638 -57.03799644
X -7.33708496 42.77848220 -12.48261361
X -21.65443279 16.33992463 -8.32173697
X -43.88621586 18.42035776 -6.73242895
X -47.84343347 29.01010445 -24.35813997
X -63.09495366 29.80476157 -18.42037407
X -41.44052087 37.82296396 -10.09864798
X -31.08039065 31.88519212 -22.58123984
X -28.05734540 30.29588540 -17.62571982
X -15.25152019 36.04605502 -26.92969901
X -46.33191084 31.09054173 -13.46485534
X -15.82887046 35.25139613 -36.84073726
X -9.78277995 21.78655839 -28.51900158
X -20.72026044 28.51897726 -32.67986942
X -16.76304282 27.23320382 -22.58123776
X -24.10012778 15.54526414 -21.78657807
X -44.82038822 33.17097565 -10.09864590
X -24.10012778 17.13457088 -26.74209808
X -4.89138997 24.35811278 -31.88521309
X -29.56886802 33.96562605 -19.21503040
X -28.05734540 34.45675324 -10.89330095
X -44.82038822 50.79667451 -26.74211311
X -42.37469323 29.80476157 -18.42037407
X -31.08039065 33.47450479 -14.25951088
X -15.25152019 46.93933501 -39.41229838
X -47.84343347 33.17096892 -25.15279631
X -25.61165041 36.84070542 -36.04608351
X -30.50304038 46.14469628 -4.16088544
X -37.48330326 20.50077823 -33.47452032
X -28.05734540 46.93933165 -46.93937357
X -21.65443279 43.26959179 -43.57316157
X -31.08039065 45.35003579 -17.62572654
X -28.05734540 58.81486265 -50.30558925
X -25.61165041 20.19725325 -20.00967873
X -43.88621586 42.77847805 -21.78659022
X -28.05734540 42.77847883 -20.00968881
X -39.92899824 54.95755243 2.57153134
X -25.61165041 39.41226989 -16.83106942
X -44.82038822 61.68996298 -20.19728973
X -15.25152019 51.10020621 -25.15280431
X -12.80582520 17.62569054 -35.25142045
X -9.78277995 28.51898734 -10.09864383
X -50.28912846 47.43048060 10.09860991
X -38.41747561 -4.16087120 -14.25949407
X -8.84860759 43.26959179 -43.57316157
X -16.76304282 8.01818557 -29.31364991
X -25.61165041 8.32173568 13.46483774
X 5.46874024 18.42035103 -21.78657935
X -55.18051843 23.07234270 -14.25950623
X -8.84860759 28.21546235 3.36619776
X -25.61165041 20.19724494 -38.61763196
X -12.80582520 -4.16087120 -14.25949407
X -47.84343347 33.17096557 -32.67987150
X -19.20873781 26.43856094 3.36619855
X -29.56886802 58.32375979 -4.16089088
X -36.90595299 44.06424476 -46.93937229
X -12.80582520 35.25139869 -31.09056348
X -15.82887046 41.98382844 -10.89330432
X -17.69721518 25.94743295 -6.73243232
X -11.29430258 28.02786015 -18.42037328
X -47.26608320 44.85890109 -42.77850781
X -38.41747561 46.14467788 -45.35006427
X -15.25152019 25.15277742 -9.11639538
X -39.92899824 52.38599388 -3.36623376
X -42.37469323 27.23321390 -0.00001216
X -25.61165041 54.46641693 -24.35815134
X -46.33191084 41.98382508 -18.42037952
X -25.61165041 48.71623307 -46.93937437
X -42.37469323 36.53719132 1.77688511
X -20.72026044 13.46483694 -10.09863710
X -16.18569255 35.74252668 -20.99193261
X -3.95721762 29.80475821 -25.94744927
X -50.28912846 23.07232846 -46.14470845
X -32.01456301 37.33184765 5.93774958
X -67.05217128 21.78656175 -20.99192638
X -20.72026044 41.98382508 -18.42037952
X -33.52608564 20.19724573 -36.84073055
X -32.01456301 65.85082075 -36.04609645
X -25.61165041 74.66368026 -21.78660446
X -21.65443279 47.43048060 10.09860991
X -35.03760827 28.02785679 -25.94744848
X -51.22330082 57.03797131 -27.72436285
X -39.35164797 36.53718716 -7.52709152
X -39.92899824 26.43853582 -52.87713067
X -7.33708496 27.72432093 -36.84073390
X -46.33191084 50.30554988 -29.31366879
X -17.69721518 2.57154351 -27.72433852
X -33.52608564 43.57313437 -17.62572575
X -36.90595299 26.43855342 -13.46485326
X -28.05734540 42.77848556 -4.95553841
X -19.20873781 4.65198831 -0.00000208
X -43.88621586 56.24332587 -7.52710032
X -37.48330326 40.69804077 -32.67987486
X -4.89138997 41.98383596 5.93774751
X -3.37986735 34.76028574 -7.52709072
X -36.90595299 26.43854670 -28.51900366
X -20.72026044 50.30554653 -36.84074399
X -32.94873537 52.08244793 -36.84074478
X -25.61165041 28.51897390 -40.20694463
X -32.01456301 52.38598301 -27.72436077
X -29.56886802 51.59133756 -7.52709823
X -8.84860759 43.26960603 -11.68795936
X -28.99151776 30.59941790 -14.25950959
X -26.54582277 31.39407087 -17.62572031
X -25.61165041 31.09054925 3.36619648
X -31.08039065 47.92159018 -20.99193806
X -21.65443279 43.26960524 -13.46486078
X -24.10012778 50.79668795 3.36618767
X -15.82887046 41.98382171 -25.94745471
X -13.73999756 18.91147822 -13.46484990
X -24.10012778 61.68996379 -18.42038831
X -23.16595542 11.68793631 -8.32173489
X -14.31734783 33.17096892 -25.15279631
X -25.61165041 52.87711515 -8.32175328
X -26.54582277 33.96563277 -4.16088001
X -22.23178306 33.17096892 -25.15279631
X -19.20873781 57.52909179 -34.45678380
X -31.08039065 56.24331578 -30.10832591
X -16.76304282 40.69804492 -23.37589824
X -8.84860759 14.75061453 -10.89329215
X -33.52608564 46.14469965 3.36618975
X -15.25152019 14.25948398 -26.74209680
X -38.41747561 50.30554573 -38.61764540
X -32.94873537 18.42034431 -36.84072975
X -23.16595542 47.92159018 -20.99193806
X -22.23178306 37.33184014 -10.89330224
X -50.28912846 47.43046715 -20.00969089
X -22.23178306 50.79668123 -11.68796272
X -19.20873781 48.22511180 -41.98385484
X -35.97178063 25.15276990 -25.94744719
X -33.52608564 59.60952986 -21.78659775
X -10.36013022 30.29588282 -23.37589360
X -39.92899824 26.43856094 3.36619855
X -42.37469323 27.23320382 -22.58123776
X -2.44569499 10.09862959 -3.36621487
X -17.69721518 51.28778746 -50.30558588
X -24.10012778 59.11840940 -15.05417680
X -51.22330082 21.78656511 -13.46485118
X -48.77760583 38.61760684 -36.04608430
X -29.56886802 36.53718380 -15.05416672
X -56.69204106 25.15276990 -25.94744719
X -17.69721518 55.44865530 -43.57316701
X -20.14291017 34.45673564 -50.30557836
X 3.95721762 58.32374555 -36.04609310
X -38.41747561 41.98382587 -16.64347809
X -26.54582277 40.69804492 -23.37589824
X -42.37469323 55.75220125 -10.09865599
X -7.91443523 17.62570478 -3.36621824
X -27.12317304 24.84924412 -14.25950702
X -24.67747805 47.43046299 -29.31366750
X -13.73999756 62.48462427 -4.95554721
X -16.76304282 5.44664128 -3.36621279
X -12.80582520 52.87711436 -10.09865470
X -35.97178063 60.40418362 -23.37590704
X -23.16595542 36.04604910 -40.20694798
X -15.25152019 62.97574058 -20.99194478
X -33.52608564 52.87710091 -40.20695550
X -17.69721518 17.62568719 -42.77849565
X -0.93417236 29.80475406 -35.25142589
X -39.92899824 24.84923403 -36.84073262
X -8.84860759 47.43047050 -12.48261569
X -34.46025800 44.85890781 -27.72435741
X -16.18569255 41.49271133 3.36619183
X -25.61165041 20.19726669 10.09862207
X -17.69721518 21.78655166 -43.57315198
X -16.76304282 58.32374891 -28.51901790
X -32.01456301 18.11682526 -10.09863918
X -29.56886802 49.01977309 -26.74211232
X -32.01456301 39.90339116 -21.78658894
X -46.33191084 28.51897390 -40.20694463
X -35.03760827 35.74253004 -13.46485742
X -43.88621586 25.15275902 -50.30557420
X -32.01456301 42.47494891 -17.62572526
X -11.29430258 29.01010860 -15.05416335
X -24.10012778 44.06426236 -7.52709488
X -26.54582277 54.16289195 -10.89330975
X -33.52608564 39.41227069 -15.05416800
X -23.16595542 25.15277405 -16.64347057
X -35.97178063 45.35003995 -8.32174993
X -28.63469567 39.41227742 -0.00001760
X -33.52608564 54.46641773 -22.58124992
X -38.41747561 52.87710347 -34.45678172
X -29.56886802 18.91147070 -30.29590171
X -2.44569499 25.15275902 -50.30557420
X -54.24634608 21.78655839 -28.51900158
X -24.10012778 54.95754907 -4.95554385
X -34.46025800 33.96563277 -4.16088001
X -42.37469323 8.01818222 -36.84072511
X -54.24634608 24.35811949 -16.83106269
X -20.72026044 41.98383932 13.46482270
X -32.94873537 41.18917211 -15.05416879
X -31.08039065 22.58121215 -30.10831088
X -38.41747561 37.82296059 -17.62572318
X -16.76304282 16.33992463 -8.32173697
X -8.84860759 58.32376315 3.36618432
X -14.31734783 54.95754155 -21.78659567
X -46.33191084 36.84071550 -13.46485790
X -20.72026044 52.87710842 -23.37590368
X -35.97178063 30.29588282 -23.37589360
X -11.29430258 41.49270045 -20.99193518
X -67.05217128 28.51897390 -40.20694463
X 0.00000000 13.46484446 6.73241471
X -15.25152019 58.81486265 -50.30558925
X -6.40291260 30.59941454 -21.78658479
X -38.41747561 66.34195130 -20.19729181
X -19.20873781 37.33183341 -25.94745264
X -33.52608564 46.14469292 -11.68796065
X -48.77760583 25.15277663 -10.89329679
X -24.67747805 36.53717292 -39.41229373
X -52.73482345 37.33183677 -18.42037743
X -29.56886802 69.21703226 -33.47454207
X -21.65443279 51.59134172 1.77687838
X -17.69721518 35.25141709 10.09861535
X -60.64925868 37.33183677 -18.42037743
X -32.01456301 50.79667292 -30.29591595
X -15.25152019 42.77848220 -12.48261361
X -39.35164797 23.07234270 -14.25950623
X 0.00000000 20.19725325 -20.00967873
X -48.77760583 36.04606254 -10.09864719
X -17.69721518 28.51898062 -25.15279422
X -50.28912846 18.91146813 -36.04607550
X -42.37469323 43.26960939 -4.16088416
X -19.20873781 41.49269789 -26.74210896
X -28.05734540 38.61762523 5.14309454
X -37.48330326 14.75060702 -27.72434397
X -37.48330326 34.94786362 -40.20694749
X -21.65443279 21.48303261 -16.83106142
X -28.63469567 35.25139949 -29.31366207
X -44.82038822 68.42238522 -16.83108238
X -24.10012778 12.97370304 -33.47451695
X -25.61165041 26.92968892 13.46482943
X -34.46025800 39.10873819 -18.42037823
X -56.69204106 45.35002571 -40.20695214
X -25.61165041 67.93126555 -8.32176001
X -23.16595542 36.04605166 -34.45677420
X -56.69204106 49.51089355 -33.47453327
X -33.52608564 13.46482606 -34.45676411
X -16.76304282 47.43046556 -23.56349373
X -10.36013022 60.40417947 -32.67988366
X -4.89138997 52.87710427 -32.67988030
X -32.94873537 38.61760684 -36.04608430
X -21.65443279 42.28735422 -22.58124448
X -4.89138997 43.57313774 -10.09865055
X -24.10012778 50.79667708 -20.99193934
X -52.73482345 37.33183598 -20.19727885
X -32.01456301 33.17097724 -6.54484306
X -30.50304038 50.30554653 -36.84074399
X -40.86317060 31.88518877 -30.10831504
X -12.80582520 35.25140205 -23.56348829
X -14.31734783 41.49269374 -36.04608558
X -21.65443279 56.73443882 -31.09057307
X -16.18569255 19.70612111 -39.41228621
X -25.61165041 50.30554909 -31.09057021
X -29.56886802 40.69805580 0.98222877
X -12.80582520 59.60951898 -46.14472476
X -39.92899824 44.06425980 -13.27726866
X -6.40291260 57.52909594 -25.15280718
X -34.46025800 25.64389036 -32.67986813
X -42.37469323 12.17904590 -39.41228285
X -44.82038822 8.81283519 -40.20693582
X -22.58860515 39.41227069 -15.05416800
X -34.46025800 47.43046299 -29.31366750
X -33.52608564 39.41225982 -39.41229501
X -29.56886802 20.50078911 -9.11639329
X -12.80582520 67.93125467 -32.67988702
X -25.61165041 47.73399470 -27.72435869
X -33.52608564 46.14469212 -13.46486206
X 3.02304526 28.51898398 -17.62571903
X -52.73482345 8.81283855 -32.67986062
X -27.12317304 29.01009772 -39.41229037
X -23.16595542 42.77847805 -21.78659022
X -59.13773605 28.51898062 -25.15279422
X -16.76304282 47.43046635 -21.78659231
X -6.40291260 33.17097981 -0.79466929
X -0.93417236 36.53717292 -39.41229373
X 15.82887046 21.78655839 -28.51900158
X -38.41747561 44.55537611 -29.31366622
X -24.10012778 22.27768301 -25.94744591
X -28.05734540 3.36620063 -21.78657263
X -54.24634608 21.78656511 -13.46485118
X -32.01456301 15.54527502 2.57154895
X 7.91443523 39.41225982 -39.41229501
X -11.29430258 18.11681516 -32.67986478
X -8.84860759 40.69805164 -8.32174785
X -17.69721518 31.09053837 -20.99193054
X -55.18051843 65.05616442 -40.20696094
X -23.16595542 22.58121551 -22.58123568
X -47.84343347 50.79668123 -11.68796272
X -19.20873781 7.22353261 -25.94743919
X -12.80582520 22.76880763 -23.37589024
X -28.99151776 23.86698895 -32.67986735
X -23.16595542 26.13501835 -22.58123727
X -4.89138997 43.57313437 -17.62572575
X -21.65443279 35.55493871 -10.89330144
X -10.36013022 36.04606254 -10.09864719
X 11.87165285 47.43045963 -36.84074270
X -37.48330326 27.23319630 -39.41228958
X -25.61165041 31.09052076 -60.40420795
X -47.84343347 30.59941118 -29.31365999
X -12.80582520 46.14467788 -45.35006427
X -37.48330326 16.33991711 -25.15278878
X -19.20873781 17.13457088 -26.74209808
X 0.00000000 50.30553901 -53.67179581
X -21.65443279 32.37630508 -46.14471260
X -34.46025800 36.53717628 -31.88521853
X -26.54582277 27.23319967 -31.88521437
X -13.73999756 36.53717965 -24.35814334
X -12.80582520 39.41226989 -16.83106942
X -34.46025800 54.16287771 -42.77851197
X -37.48330326 35.55493535 -18.42037664
X -34.46025800 36.53717292 -39.41229373
X -24.10012778 48.22513357 6.73239918
X -7.33708496 37.02831099 -6.73243727
X -13.73999756 39.10874155 -10.89330302
X -16.76304282 20.50078831 -10.89329471
X -7.91443523 41.98383181 -3.36622911
X -33.52608564 35.25140621 -14.25951167
X -32.94873537 20.99190541 -25.15279086
X -17.69721518 30.10830080 -0.00001345
X -25.61165041 4.16085439 -23.37588193
X -8.84860759 32.37632011 -12.48260897
X -0.93417236 36.53717707 -30.10831711
X -43.30886559 52.87710091 -40.20695550
X -40.86317060 18.42034431 -36.84072975
X -34.46025800 51.59133420 -15.05417344
X -25.61165041 21.78655918 -26.74210016
X -19.20873781 70.01169196 -21.78660239
X -25.61165041 36.84072302 3.36619391
X -32.94873537 34.45674315 -33.47452655
X -42.37469323 47.43046715 -20.00969089
X -32.94873537 14.25947647 -43.57314861
X -38.41747561 63.77038683 -39.41230589
X -26.54582277 27.23320382 -22.58123776
X -32.01456301 50.79665947 -60.40421675
X -19.20873781 19.70613277 -13.27725778
X -59.13773605 21.78655839 -28.51900158
X -39.92899824 4.65197743 -24.35812909
X -38.41747561 21.78656255 -19.21502496
X -21.65443279 62.48461675 -21.78659903
X -28.63469567 48.71625403 -0.00002176
X -30.50304038 46.14468620 -26.74211104
X -48.77760583 34.45674652 -25.94745135
X -33.52608564 33.66210027 -7.52709023
X -11.29430258 44.06425148 -31.88522190
X -16.18569255 28.02785343 -33.47452367
X -30.50304038 43.57313102 -25.15280095
X -35.97178063 33.47450479 -14.25951088
X -13.73999756 40.69805836 6.73240255
X -52.73482345 30.59942126 -6.73243439
X -28.05734540 14.25948319 -28.51899822
X -35.97178063 34.45675324 -10.89330095
X -29.56886802 43.26959179 -43.57316157
X -10.36013022 49.51089948 -20.19728429
X -11.29430258 26.43856094 3.36619855
X -2.44569499 36.04605245 -32.67987278
X -27.12317304 26.43855758 -4.16087664
X -42.37469323 33.96561101 -52.87713404
X -39.92899824 30.59941790 -14.25950959
X -15.25152019 53.67176396 -20.99194062
X -16.18569255 30.59940782 -36.84073519
X -25.61165041 11.87553101 -3.36621567
X -34.46025800 27.23320045 -30.10831296
X 1.51152263 54.95754492 -14.25952047
X -48.77760583 34.45675404 -9.11639953
X -23.16595542 44.36779071 -13.46486127
X -35.97178063 3.36620735 -6.73242223
X -16.76304282 18.91147229 -26.74209887
X -21.65443279 29.80474317 -59.60955290
X -0.93417236 51.59134092 -0.00002304
X -39.92899824 19.70611775 -46.93936141
X -24.67747805 23.07232846 -46.14470845
X -24.10012778 23.86700319 -0.79466513
X -35.03760827 19.70612782 -24.35813582
X -24.10012778 8.81283519 -40.20693582
X -27.12317304 30.59942542 2.57154223
X -12.80582520 46.14468204 -36.04608766
X -52.73482345 23.86699231 -25.15279215
X -11.29430258 37.33183598 -20.19727885
X -23.16595542 5.93774830 -40.20693453
X -47.84343347 44.06425228 -30.10832048
X -52.73482345 29.01011532 -0.00001296
X -30.50304038 24.35811357 -30.10831167
X -7.33708496 60.40419707 6.73239376
X -3.37986735 35.74252332 -28.51900781
X -25.61165041 57.03796875 -33.47453663
X -35.97178063 25.15276654 -33.47452239
X -0.93417236 20.50078496 -18.42036991
X -4.89138997 50.30554653 -36.84074399
X -9.78277995 46.14469292 -11.68796065
X -32.01456301 11.38439630 -28.51899694
X -36.90595299 19.70611775 -46.93936141
X -12.80582520 33.66210364 -0.00001503
X -23.16595542 36.04605997 -15.84882097
X -32.01456301 31.58165627 -33.47452527
X -6.40291260 19.70612782 -24.35813582
X -39.92899824 35.74253419 -4.16088080
X -28.05734540 37.02830762 -14.25951246
X -24.67747805 43.26959931 -26.74210976
X -39.92899824 30.59940782 -36.84073519
X -4.89138997 33.66209019 -30.10831583
X -8.84860759 36.53718459 -13.27726529
X -17.69721518 37.82296811 -0.79467136
X -3.95721762 33.96562190 -28.51900702
X -28.99151776 37.33184349 -3.36622704
X -13.73999756 25.64389294 -26.92969436
X -15.25152019 60.40418283 -25.15280846
X -34.46025800 12.17905342 -22.58123103
X -14.31734783 39.90340540 10.09861326
X -25.61165041 16.03639133 -13.46484862
X -43.88621586 45.35004331 -0.79467473
X 5.46874024 34.45674315 -33.47452655
X -6.40291260 8.81284606 -15.84880881
X -42.37469323 36.53719804 16.83103550
X -28.05734540 31.88518718 -33.66211788
X -40.86317060 34.45675404 -9.11639953
X -7.33708496 14.25948991 -13.46484783
X -33.52608564 32.67984846 -18.42037536
X -42.37469323 31.39407423 -10.09864511
X -29.56886802 40.69802988 -57.03800188
X -28.05734540 34.45675660 -3.36622575
X -21.65443279 27.23321134 -5.75018594
X -2.44569499 41.18917547 -7.52709359
X -19.20873781 18.11682605 -8.32173776
X -28.05734540 41.18916122 -39.41229581
X -21.65443279 23.07234013 -20.00968000
X -38.41747561 67.93126475 -10.09866142
X 5.46874024 49.51090700 -3.36623248
X -50.28912846 36.53718716 -7.52709152
X -39.92899824 23.86699231 -25.15279215
X -35.97178063 49.51090107 -16.64348145
X -41.44052087 21.78655166 -43.57315198
X -27.12317304 26.43854590 -30.29590508
X -3.95721762 36.53718380 -15.05416672
X -13.73999756 36.53718380 -15.05416672
X -15.25152019 29.31363023 -36.04608014
X -42.37469323 28.21545227 -19.21502784
X -19.20873781 57.52908506 -49.51093420
X -8.84860759 1.28577008 -17.62570686
X -40.86317060 27.72432093 -36.84073390
X -10.36013022 31.88518461 -39.41229165
X -2.44569499 31.88518461 -39.41229165
X -35.97178063 44.36779071 -13.46486127
X -12.80582520 26.92967468 -18.42037279
X -41.44052087 13.46481934 -49.51091452
X -29.56886802 55.75219116 -32.67988158
X -48.77760583 34.45674315 -33.47452655
X -31.08039065 22.58121887 -15.05416048
X -47.26608320 23.07233934 -21.78658142
X -20.14291017 22.58121887 -15.05416048
X -16.18569255 33.17096220 -40.20694670
X -3.95721762 38.12647550 -53.67179037
X -35.97178063 20.99189790 -41.98384268
X -35.97178063 44.36777726 -43.57316206
X -33.52608564 44.55537611 -29.31366622
X -55.18051843 12.17905342 -22.58123103
X -32.94873537 29.31363695 -20.99192975
X -16.76304282 1.28576671 -25.15278206
X -31.08039065 31.88519470 -16.83106606
X -31.08039065 42.77848141 -14.25951503
X -44.82038822 45.65355742 -38.61764333
X -46.33191084 55.44865530 -43.57316701
X -42.37469323 62.48461339 -29.31367423
X -19.20873781 65.85082075 -36.04609645
X -14.31734783 26.43855006 -20.99192846
X -34.46025800 33.96560766 -60.40420923
X -31.08039065 27.72432428 -29.31365870
X -32.01456301 38.92114607 -17.62572367
X -63.09495366 23.07234270 -14.25950623
X 5.46874024 56.24331578 -30.10832591
X -12.80582520 28.51898734 -10.09864383
X -11.29430258 54.95753820 -29.31367087
X -27.12317304 44.06426652 1.77688174
X -32.01456301 37.33182589 -42.77850445
X -13.73999756 21.48302252 -39.41228700
X -25.61165041 52.87709676 -49.51093212
X -50.28912846 31.39406078 -40.20694590
X -21.65443279 62.48462091 -12.48262242
X -3.95721762 58.32375227 -20.99194270
X -32.01456301 59.11841276 -7.52710160
X -21.65443279 46.44822127 -17.62572703
X -28.05734540 25.15277405 -16.64347057
X -21.65443279 1.28575999 -40.20693246
X -28.05734540 71.29747290 -15.05418224
X -23.16595542 38.61761693 -13.46485870
X -39.92899824 15.54525327 -46.14470508
X -26.54582277 23.07233182 -38.61763325
X -35.97178063 47.92158346 -36.04608845
X -4.89138997 59.60952986 -21.78659775
X -21.65443279 51.59133083 -22.58124864
X -7.33708496 16.83104094 -24.35813454
X -11.29430258 37.33184014 -10.89330224
X -13.73999756 29.80476078 -20.19727549
X -16.76304282 29.80477581 13.46482814
X -19.20873781 22.27769053 -9.11639409
X -40.86317060 20.99191966 6.73241135
X -28.05734540 56.24332587 -7.52710032
X -36.90595299 33.17096972 -23.37589488
X -59.13773605 35.25139613 -36.84073726
X -13.73999756 51.59132748 -30.10832384
X -31.08039065 42.77847468 -29.31366543
X -24.10012778 46.63580666 -33.47453199
X -37.48330326 62.48461754 -20.00969761
X -4.89138997 28.51898142 -23.37589280
X -7.33708496 16.83103757 -31.88520973
X -43.30886559 39.41226989 -16.83106942
X -2.44569499 27.72433852 2.57154351
X -9.78277995 39.41227069 -15.05416800
X -13.73999756 25.64387949 -57.03799516
X -6.40291260 39.90339531 -12.48261232
X -15.25152019 14.25948734 -19.21502160
X -24.10012778 35.74253004 -13.46485742
X -6.40291260 37.33182925 -35.25142925
X -8.84860759 23.07234685 -4.95552961
X -6.40291260 33.17097565 -10.09864590
X -7.33708496 45.35003995 -8.32174993
X -8.84860759 58.32374891 -28.51901790
X -43.88621586 60.40419034 -8.32175665
X -26.54582277 40.69805836 6.73240255
X -36.90595299 50.79668123 -11.68796272
X -24.10012778 33.17096892 -25.15279631
X 5.46874024 56.24332587 -7.52710032
X -17.69721518 31.09052749 -45.35005755
X -15.25152019 42.77848893 2.57153678
X -33.52608564 57.03798220 -3.36623583
X -21.65443279 32.37631675 -20.00968416
X -43.30886559 39.41225645 -46.93937022
X -32.01456301 61.68994955 -50.30559053
X -29.56886802 10.58974333 -25.15278621
X -32.94873537 27.72433437 -6.73243311
X -7.33708496 60.40418362 -23.37590704
X -39.92899824 29.01010445 -24.35813997
X -25.61165041 26.92966716 -35.25142460
X -29.56886802 25.64390045 -10.09864255
X -25.61165041 41.98381004 -52.08248314
X -47.84343347 41.49269789 -26.74210896
X -20.14291017 49.51090779 -1.58933106
X -46.33191084 31.09053916 -19.21502912
X -29.56886802 45.84114954 -39.41229789
X -43.88621586 20.99190206 -32.67986606
X -24.67747805 40.69804749 -17.62572447
X -35.97178063 58.81486265 -50.30558925
X -3.37986735 37.33183341 -25.94745264
X -24.10012778 8.81284527 -17.62571023
X -21.65443279 18.91146735 -37.82297691
X -54.24634608 21.78655503 -36.04607678
X -7.33708496 42.77847883 -20.00968881
X -8.84860759 54.16288779 -20.19728636
X -21.65443279 33.96562525 -20.99193182
X -32.01456301 18.11682189 -17.62571438
X -35.97178063 22.58122223 -7.52708529
X -29.56886802 21.48303261 -16.83106142
X -12.80582520 50.30554988 -29.31366879
X -12.80582520 74.66368698 -6.73245407
X -15.25152019 16.83104094 -24.35813454
X -24.10012778 30.59942878 10.09861742
X -21.65443279 55.75220204 -8.32175457
X -30.50304038 35.25138861 -53.67178908
X -8.84860759 32.37630923 -36.84073598
X -46.33191084 50.30555997 -6.73244319
X -25.61165041 32.67984431 -27.72435197
X -6.40291260 26.43856094 3.36619855
X 7.91443523 21.78655503 -36.04607678
X -43.88621586 20.99189454 -49.51091788
X -30.50304038 57.03797212 -25.94746144
X -31.08039065 40.20692029 -25.94745392
X -10.36013022 27.72433517 -4.95553169
X -20.72026044 6.73241471 -13.46484446
X -37.48330326 51.59132748 -30.10832384
X -48.77760583 42.77847725 -23.56349164
X -25.61165041 26.92967884 -9.11639617
X -24.10012778 22.27768221 -27.72434733
X -42.37469323 33.96562110 -30.29590844
X -10.36013022 36.04604494 -49.51092460
X -35.03760827 48.22513020 -0.79467601
X -17.69721518 25.94742959 -14.25950751
X -25.61165041 28.51896638 -57.03799644
X -23.16595542 20.99189869 -40.20694126
X -6.40291260 26.43854749 -26.74210224
X -43.88621586 52.08246138 -6.73244399
X -3.95721762 65.05617787 -10.09866014
X -39.35164797 36.53718380 -15.05416672
X 0.00000000 28.51897390 -40.20694463
X -27.12317304 39.90338700 -31.09056556
X -30.50304038 6.73240799 -28.51899486
X 15.82887046 48.71624058 -30.10832255
X -20.14291017 31.88518461 -39.41229165
X -42.37469323 36.53718044 -22.58124191
X -16.18569255 23.86699566 -17.62571695
X -41.44052087 52.87711179 -15.84882849
X -40.86317060 31.88519549 -15.05416463
X -24.10012778 38.92114270 -25.15279887
X -43.88621586 36.04605918 -17.62572238
X -31.08039065 22.58121551 -22.58123568
X -11.29430258 42.47494554 -25.15280046
X -6.40291260 48.22511260 -40.20695343
X -52.73482345 39.90339452 -14.25951375
X -41.44052087 28.51898062 -25.15279422
X -36.90595299 37.33183261 -27.72435405
X -7.33708496 25.15277663 -10.89329679
X -12.80582520 37.82296475 -8.32174657
X -52.73482345 39.90339116 -21.78658894
X -28.05734540 12.67017725 -21.78657678
X -23.16595542 37.02830090 -29.31366285
X -8.84860759 69.21704234 -10.89331647
X -55.18051843 44.85890445 -35.25143261
X -25.61165041 21.78657678 12.67017725
X -16.76304282 23.07233519 -31.09055804
X -40.86317060 18.42035103 -21.78657935
X -50.28912846 23.07233598 -29.31365662
X -12.80582520 52.87709676 -49.51093212
X -12.80582520 52.87710427 -32.67988030
X -32.94873537 18.42035439 -14.25950415
X -55.18051843 36.53718380 -15.05416672
X -43.88621586 42.77847468 -29.31366543
X -11.29430258 44.06426652 1.77688174
X -4.89138997 32.67983758 -42.77850237
X -38.41747561 48.71624058 -30.10832255
X -20.72026044 21.78655839 -28.51900158
X -12.80582520 74.66368026 -21.78660446
X -6.40291260 59.11840860 -16.83107822
X -16.76304282 54.16288779 -20.19728636
X -38.41747561 6.73242223 3.36620735
X -35.97178063 31.88519964 -5.75018801
X -2.44569499 45.35003323 -23.37590032
X -25.61165041 35.25139197 -46.14471389
X -25.61165041 55.44865786 -37.82299323
X -25.61165041 70.50280906 -36.04609854
X -48.77760583 7.52706847 -15.05415376
X -16.76304282 31.39406078 -40.20694590
X -4.89138997 48.71624315 -24.35814878
X -32.01456301 34.76027150 -39.41229294
X -28.05734540 29.31364031 -13.46485454
X -42.37469323 50.00201738 -32.67987902
X -21.65443279 55.75219788 -17.62573119
X -54.24634608 52.87712187 6.73239711
X -6.40291260 50.79667371 -28.51901453
X -7.33708496 52.08245803 -14.25951919
X -32.94873537 25.15275902 -50.30557420
X -32.01456301 23.86698559 -40.20694254
X -35.39443036 21.78656511 -13.46485118
X -4.89138997 35.25139197 -46.14471389
X -24.10012778 54.95753483 -36.84074607
X -55.18051843 38.12648558 -31.09056477
X -22.58860515 48.71624730 -15.05417216
X -25.61165041 13.46481598 -57.03798971
X -16.18569255 19.70612447 -31.88521101
X -12.80582520 35.25139533 -38.61763868
X -33.52608564 43.57313181 -23.37589952
X -39.92899824 37.33185101 13.46482478
X -26.54582277 50.00202746 -10.09865342
X -32.01456301 57.52909514 -26.92970860
X -21.65443279 23.07233261 -36.84073183
X -38.41747561 46.14468460 -30.29591388
X -33.52608564 33.66208940 -31.88521725
X -13.73999756 32.37630844 -38.61763740
X -33.52608564 46.14468620 -26.74211104
X -20.14291017 46.93935261 -0.00002096
X -13.73999756 49.01977309 -26.74211232
X -28.05734540 52.08245130 -29.31366958
X -8.84860759 42.28735007 -31.88522110
X -43.88621586 25.15276574 -35.25142381
X -8.84860759 51.59133083 -22.58124864
X -42.37469323 9.60750240 -11.68794432
X -15.25152019 11.68793296 -15.84881009
X -14.31734783 29.01010860 -15.05416335
X -16.18569255 50.79668123 -11.68796272
X -38.41747561 15.05414368 -15.05415712
X -55.18051843 5.44662783 -33.47451359
X -33.52608564 35.25138861 -53.67178908
X -29.56886802 40.69804412 -25.15279966
X -16.76304282 36.53716955 -46.93936893
X -34.46025800 5.44663792 -10.89328799
X -4.89138997 6.73241471 -13.46484446
X 5.46874024 36.04605245 -32.67987278
X -52.73482345 34.76027486 -31.88521774
X -11.87165285 33.96561517 -43.57315742
X -25.61165041 -0.00000672 -15.05415039
X -11.87165285 23.07233598 -29.31365662
X -16.76304282 16.33992126 -15.84881216
X -21.65443279 13.76836351 -20.00967585
X -63.09495366 27.23320639 -16.83106398
X -8.84860759 18.91147150 -28.51900029
X -56.69204106 38.61761436 -19.21503248
X -6.40291260 8.81283519 -40.20693582
X -21.65443279 3.85731773 -36.04606877
X -8.84860759 36.53717707 -30.10831711
X -20.72026044 48.71624651 -16.83107357
X -46.33191084 37.82296059 -17.62572318
X -18.27456545 38.61761357 -20.99193390
X -19.20873781 38.92113599 -40.20694927
X -17.69721518 52.87711852 -0.79467809
X -2.44569499 38.61760684 -36.04608430
X -2.44569499 46.93933501 -39.41229838
X -28.05734540 52.08244378 -46.14472140
X -26.54582277 29.80475485 -33.47452447
X -40.86317060 41.18917211 -15.05416879
X -0.93417236 27.23321055 -7.52708736
X -32.01456301 0.49111375 -21.78657135
X -19.20873781 59.11840940 -15.05417680
X -11.29430258 12.97370976 -18.42036656
X -16.18569255 41.49270461 -11.68795856
X -25.61165041 20.19724157 -46.14470716
X -42.37469323 60.89530666 -24.35815421
X -21.65443279 32.37632347 -4.95553377
X 7.91443523 52.87711436 -10.09865470
X -29.56886802 9.60750912 3.36620607
X -25.61165041 4.16086784 6.73241887
X -4.89138997 63.77039434 -22.58125408
X -29.56886802 65.05617450 -17.62573534
X -40.86317060 34.45674652 -25.94745135
X -6.40291260 44.06426236 -7.52709488
X -39.92899824 37.33183261 -27.72435405
X -22.58860515 37.82296059 -17.62572318
X -17.69721518 46.14469707 -2.38398403
X -28.05734540 41.18915787 -46.93937101
X -11.29430258 8.81284527 -17.62571023
X -32.01456301 54.95754828 -6.73244527
X -59.13773605 17.62569134 -33.47451903
X -21.65443279 47.43045884 -38.61764412
X -8.84860759 36.53717628 -31.88521853
X -34.46025800 42.28734334 -46.93937150
X -21.65443279 40.69806588 23.56345437
X -2.44569499 25.15277663 -10.89329679
X -39.35164797 33.96561853 -36.04608221
X -20.14291017 16.83103422 -39.41228493
X -33.52608564 41.98381836 -33.47452991
X -35.03760827 48.22512012 -23.37590161
X -12.80582520 35.25139949 -29.31366207
X -24.10012778 11.38440302 -13.46484653
X -35.97178063 45.35004331 -0.79467473
X 9.42595786 39.90339788 -6.73243855
X -10.36013022 52.08244793 -36.84074478
X -29.56886802 38.12647886 -46.14471517
X -32.01456301 6.24129504 -4.95552210
X -34.46025800 32.37630923 -36.84073598
X -41.44052087 46.14469965 3.36618975
X -29.56886802 32.37632268 -6.73243518
X 7.91443523 24.35812030 -15.05416128
X -36.90595299 34.76027486 -31.88521774
X -7.91443523 28.51897390 -40.20694463
X -24.10012778 37.33182253 -50.30557964
X -8.84860759 27.23319294 -46.93936477
X -59.13773605 17.62570143 -10.89329344
X -43.88621586 45.35002907 -32.67987694
X -16.76304282 51.59132668 -31.88522526
X -7.91443523 35.25139949 -29.31366207
X -35.97178063 36.04605502 -26.92969901
X -7.33708496 22.58122560 -0.00001008
X -32.01456301 19.70612447 -31.88521101
X -44.82038822 35.74253419 -4.16088080
X -11.29430258 45.65356830 -14.25951631
X -6.40291260 -2.08044064 -18.42035983
X -33.52608564 52.87712187 6.73239711
X -10.36013022 29.31363023 -36.04608014
X -37.48330326 49.01978653 3.36618848
X -35.97178063 31.88519212 -22.58123984
X -36.90595299 34.76027822 -24.35814254
X -23.16595542 16.83104430 -16.83105933
X -32.01456301 22.27768637 -18.42037072
X -48.77760583 40.20690942 -50.30558093
X -51.22330082 41.98382171 -25.94745471
X -55.18051843 32.37633019 10.09861663
X -19.20873781 22.27768301 -25.94744591
X -55.18051843 40.69803740 -40.20695005
X -25.61165041 58.62728813 -10.09865727
X -8.84860759 33.96561101 -52.87713404
X -33.52608564 15.05414031 -22.58123232
X -48.77760583 34.45675660 -3.36622575
X 3.95721762 40.69804749 -17.62572447
X -19.20873781 56.54684749 -28.51901711
X -52.73482345 61.68997051 -3.36623792
X -2.44569499 52.08245466 -21.78659438
X -19.20873781 45.65355070 -53.67179372
X -33.52608564 48.71623307 -46.93937437
X -33.52608564 40.39451162 -28.51900989
X -32.94873537 31.88519212 -22.58123984
X -8.84860759 54.16287434 -50.30558716
X -42.37469323 40.69803997 -34.45677628
X -32.01456301 44.06426236 -7.52709488
X -36.90595299 26.43853998 -43.57315406
X -13.73999756 44.85890861 -25.94745599
X -44.82038822 39.90338779 -29.31366415
X -42.37469323 54.16289195 -10.89330975
X -27.12317304 26.43854749 -26.74210224
X -17.69721518 50.30556749 10.09860862
X -4.89138997 28.51898814 -8.32174241
X -7.33708496 23.56345308 -43.57315277
X -6.40291260 48.22511517 -34.45677965
X -25.61165041 -1.58931345 -10.09863038
X -12.80582520 10.89329007 10.09862622
X -12.80582520 24.35811949 -16.83106269
X -43.88621586 45.35004667 6.73240047
X -9.78277995 37.82296396 -10.09864798
X -9.78277995 33.66208940 -31.88521725
X -15.25152019 31.88517373 -63.77041867
X -24.10012778 28.02785679 -25.94744848
X -23.16595542 45.35003244 -25.15280174
X -21.65443279 12.17906351 -0.00000544
X -19.20873781 37.33183598 -20.19727885
X -43.30886559 39.41226653 -24.35814461
X 1.51152263 39.90338443 -36.84073935
X -10.36013022 45.35002571 -40.20695214
X -16.18569255 44.06426572 -0.00001968
X -33.52608564 26.92967388 -20.19727421
X -19.20873781 39.90338364 -38.61764077
X -60.64925868 44.06425228 -30.10832048
X -4.89138997 13.46482349 -40.20693790
X -42.37469323 38.12647886 -46.14471517
X -50.28912846 12.17904255 -46.93935805
X -63.09495366 54.16288186 -33.47453535
X -27.12317304 50.79666699 -43.57316494
X -40.86317060 29.31363358 -28.51900494
X -7.33708496 47.92158009 -43.57316365
X -28.99151776 26.43854333 -36.04607886
X -7.33708496 52.08246138 -6.73244399
X -28.05734540 38.61763196 20.19724494
X -38.41747561 28.51897646 -34.45677084
X -38.41747561 36.84071215 -20.99193310
X -29.56886802 32.37631675 -20.00968416
X -37.48330326 33.96561853 -36.04608221
X -25.61165041 47.73399806 -20.19728350
X -29.56886802 18.91146813 -36.04607550
X -12.80582520 21.78655839 -28.51900158
X -50.28912846 43.26959179 -43.57316157
X -19.20873781 37.33181837 -59.60955626
X -19.20873781 15.54525742 -36.84072846
X -20.14291017 27.72433437 -6.73243311
X -21.65443279 8.01819230 -14.25949950
X -34.46025800 40.69803325 -49.51092668
X -11.29430258 44.06425820 -16.83107149
X -11.29430258 39.90339788 -6.73243855
X -32.01456301 19.70611775 -46.93936141
X -63.09495366 36.53717707 -30.10831711
X 15.82887046 21.78656175 -20.99192638
X -28.05734540 51.10020285 -32.67987951
X 3.02304526 31.09054173 -13.46485534
X -21.65443279 40.69805580 0.98222877
X -32.94873537 25.15277246 -20.19727342
X -16.18569255 22.27768221 -27.72434733
X -25.61165041 31.09054331 -9.91105250
X -6.40291260 59.11840524 -24.35815341
X -29.56886802 5.44663455 -18.42036319
X -42.37469323 23.07233854 -23.56348285
X -44.82038822 33.17096220 -40.20694670
X -29.56886802 20.50078574 -16.64346850
X -18.27456545 20.99191214 -10.09864046
X -7.91443523 37.82295803 -23.37589696
X -4.89138997 41.98382092 -27.72435613
X -10.36013022 60.40418955 -10.09865807
X -13.73999756 34.94787707 -10.09864670
X -15.25152019 12.67018062 -14.25950158
X -37.48330326 42.28736094 -7.52709408
X -23.16595542 23.56346653 -13.46485198
X -37.48330326 32.37630844 -38.61763740
X -36.90595299 41.49269709 -28.51901038
X -40.86317060 29.31363023 -36.04608014
X -23.16595542 23.56347068 -4.16087536
X -24.10012778 11.38439294 -36.04607214
X -59.13773605 32.67984766 -20.19727677
X -50.28912846 39.10874155 -10.89330302
X -17.69721518 6.73241135 -20.99191966
X -20.72026044 52.87710763 -25.15280510
X -17.69721518 41.98381756 -35.25143133
X -32.01456301 57.52910267 -10.09865679
X -3.95721762 32.37632347 -4.95553377
X -15.25152019 29.31362686 -43.57315533
X -35.97178063 56.24332922 -0.00002512
X -4.89138997 24.35812365 -7.52708608
X -3.37986735 50.79667787 -19.21503792
X -39.92899824 26.43855006 -20.99192846
X -41.44052087 20.19724157 -46.14470716
X -17.69721518 29.50123243 -14.25950910
X 3.02304526 24.35811614 -24.35813789
X -11.29430258 26.43854333 -36.04607886
X -29.56886802 36.53717965 -24.35814334
X -6.40291260 50.79668459 -4.16088753
X -33.52608564 63.77040107 -7.52710368
X -29.56886802 27.23322142 16.83103966
X -12.80582520 28.51897726 -32.67986942
X -4.89138997 17.62568719 -42.77849565
X -21.65443279 36.53717213 -41.18919515
X -29.56886802 73.37790346 -19.21504801
X -0.93417236 18.91146813 -36.04607550
X -6.40291260 -2.08044400 -25.94743503
X -43.88621586 16.83103085 -46.93936012
X -43.88621586 41.18917132 -16.83107021
X -6.40291260 26.43854333 -36.04607886
X -23.16595542 60.40419371 -0.79468145
X -38.41747561 28.51897982 -26.92969564
X -32.01456301 41.49269374 -36.04608558
X -40.86317060 20.99190206 -32.67986606
X -29.56886802 31.39407167 -15.84881889
X -6.40291260 61.68995627 -35.25144013
X -43.30886559 37.82295803 -23.37589696
X -26.54582277 20.50079168 -3.36621952
X -28.05734540 49.51088604 -50.30558509
X -55.18051843 65.05616777 -32.67988574
X -12.80582520 31.09055340 12.67017310
X -33.52608564 33.66209275 -24.35814205
X -27.12317304 41.49271133 3.36619183
X -22.58860515 39.41226733 -22.58124320
X -10.36013022 56.24331915 -22.58125071
X -50.28912846 29.80475069 -42.77850109
X 1.51152263 41.49270382 -13.46485998
X -16.76304282 38.12647886 -46.14471517
X -13.73999756 23.07234606 -6.73243103
X -17.69721518 10.89326911 -36.84072639
X -10.36013022 60.40417610 -40.20695886
X -10.36013022 34.45675660 -3.36622575
X -39.35164797 16.33991374 -32.67986398
X -20.14291017 33.47449470 -36.84073647
X -35.39443036 41.98382171 -25.94745471
X -32.01456301 29.01010187 -30.10831375
X -33.52608564 31.09053165 -36.04608093
X -13.73999756 45.84115627 -24.35814749
X -52.73482345 30.59940030 -53.67178700
X -59.13773605 41.98382171 -25.94745471
X -29.56886802 43.26960939 -4.16088416
X -40.86317060 34.45676076 5.93775086
X -25.61165041 78.82455147 -7.52711040
X -29.56886802 25.64389373 -25.15279294
X -22.58860515 48.71624058 -30.10832255
X -3.37986735 44.06426236 -7.52709488
X -28.63469567 44.55537274 -36.84074142
X -35.97178063 22.58121887 -15.05416048
X -32.01456301 57.52909179 -34.45678380
X -30.50304038 52.87711515 -8.32175328
X -25.61165041 67.93125131 -40.20696222
X -43.88621586 34.45673564 -50.30557836
X -32.01456301 61.68995290 -42.77851533
X -32.01456301 8.81284863 -10.09863503
X -4.89138997 41.98382508 -18.42037952
X -9.78277995 41.98382171 -25.94745471
X -33.52608564 2.57154351 -27.72433852
X -20.14291017 10.09862207 -20.19726669
X -19.20873781 29.01009772 -39.41229037
X -30.50304038 55.44865866 -36.04609181
X -42.37469323 39.10873146 -33.47452862
X -40.86317060 42.77848477 -6.73243983
X -35.97178063 56.24332250 -15.05417551
X -34.46025800 40.69803661 -41.98385148
X -35.03760827 26.43854333 -36.04607886
X -48.77760583 49.51089276 -35.25143469
X -28.05734540 51.10019949 -40.20695470
X -15.25152019 23.56346396 -19.21502576
X -30.50304038 39.41227405 -7.52709281
X -21.65443279 47.43046299 -29.31366750
X -27.12317304 26.43853918 -45.35005547
X -43.88621586 25.15276654 -33.47452239
X -36.90595299 29.01011532 -0.00001296
X -52.73482345 33.17096557 -32.67987150
X -19.20873781 46.63581675 -10.89330639
X -51.22330082 28.51897726 -32.67986942
X -27.12317304 17.13457423 -19.21502288
X -46.33191084 48.71625403 -0.00002176
X -37.48330326 28.21544139 -43.57315484
X -41.44052087 50.30555404 -20.00969217
X -11.29430258 44.06427324 16.83103214
X -12.80582520 67.93126139 -17.62573662
X -35.97178063 3.36619391 -36.84072302
X -9.78277995 36.84071966 -4.16088129
X -41.44052087 36.84071294 -19.21503168
X -28.63469567 37.82296396 -10.09864798
X -29.56886802 59.91305564 -33.47453791
X -16.76304282 18.91147150 -28.51900029
X -23.16595542 30.29587531 -40.20694541
X -24.67747805 31.39407423 -10.09864511
X -32.01456301 12.97371391 -9.11638994
X -32.01456301 37.33184014 -10.89330224
X -17.69721518 35.25140957 -6.73243647
X -25.61165041 59.60951898 -46.14472476
X -38.41747561 63.77038347 -46.93938109
X -6.40291260 41.49270045 -20.99193518
X -15.25152019 49.51091115 5.93774414
X -17.69721518 36.84070958 -26.74210689
X -4.89138997 13.46483022 -25.15278750
X -48.77760583 41.18916538 -30.10831919
X -30.50304038 41.98382092 -27.72435613
X 0.00000000 37.82295803 -23.37589696
X -12.80582520 25.94742623 -21.78658271
X -15.25152019 38.61762523 5.14309454
X 11.87165285 33.96562525 -20.99193182
X -47.84343347 19.70612447 -31.88521101
X -51.22330082 24.35811357 -30.10831167
X -24.67747805 33.96562862 -13.46485663
X -13.73999756 51.59134172 1.77687838
X -55.18051843 33.96561853 -36.04608221
X -16.76304282 20.50078496 -18.42036991
X -54.24634608 48.71624395 -22.58124736
X -24.10012778 48.22512684 -8.32175121
X -20.14291017 20.99190462 -26.92969228
X -3.37986735 39.90339116 -21.78658894
X -0.93417236 44.85891533 -10.89330560
X -26.54582277 16.33991374 -32.67986398
X -20.14291017 52.08246138 -6.73244399
X -6.40291260 37.33182253 -50.30557964
X -41.44052087 33.66209275 -24.35814205
X -32.01456301 26.43854333 -36.04607886
X -44.82038822 35.74253755 3.36619439
X -21.65443279 32.37631260 -29.31366078
X -12.80582520 61.19882908 -43.57316958
X -16.18569255 22.27768557 -20.19727212
X -40.86317060 14.25949743 3.36620400
X -28.05734540 20.99191293 -8.32173904
X -4.89138997 35.25140621 -14.25951167
X -3.37986735 41.49270798 -4.16088337
X -31.08039065 20.99190126 -34.45676748
X -15.25152019 31.88520222 -0.00001424
X -26.54582277 39.10874155 -10.89330302
X -2.44569499 56.24332171 -16.83107694
X -22.23178306 19.70612111 -39.41228621
X -9.78277995 25.94742623 -21.78658271
X -8.84860759 65.05617787 -10.09866014
X -15.25152019 49.51089948 -20.19728429
X -9.78277995 13.46482943 -26.92968892
X -34.46025800 9.60749903 -19.21501953
X -14.31734783 8.81284527 -17.62571023
X -0.93417236 27.23319967 -31.88521437
X -25.61165041 39.41226317 -31.88521981
X 3.95721762 5.44664128 -3.36621279
X -37.48330326 45.84114954 -39.41229789
X -34.46025800 5.44663455 -18.42036319
X -41.44052087 40.39450490 -43.57316029
X -13.73999756 43.26960939 -4.16088416
X -31.08039065 31.88518125 -46.93936685
X -44.82038822 54.95753403 -38.61764749
X -19.20873781 41.49270798 -4.16088337
X -47.26608320 38.12648558 -31.09056477
X -14.31734783 46.63581675 -10.89330639
X -39.92899824 44.06426315 -5.75019346
X -6.40291260 45.65355742 -38.61764333
X -22.58860515 44.55537611 -29.31366622
X -55.18051843 47.43046971 -14.25951711
X -32.94873537 14.25947983 -36.04607341
X -14.31734783 26.43854749 -26.74210224
X -39.92899824 59.11841276 -7.52710160
X -8.84860759 33.96563614 3.36619520
X -36.90595299 15.54526414 -21.78657807
X -47.26608320 18.91148573 3.36620191
X -12.80582520 -4.16088129 -36.84071966
X -34.46025800 40.69805084 -10.09864927
X -13.73999756 24.66164607 -26.74210145
X 5.46874024 31.88519470 -16.83106606
X -22.58860515 52.87712187 6.73239711
X -15.25152019 47.92158682 -28.51901325
X -36.90595299 37.33183677 -18.42037743
X -2.44569499 52.08245803 -14.25951919
X -22.58860515 35.25140285 -21.78658687
X -22.23178306 26.43854670 -28.51900366
X -33.52608564 46.14468956 -19.21503584
X -39.35164797 16.33992384 -10.09863839
X -16.76304282 54.16289531 -3.36623455
X -34.46025800 58.32374891 -28.51901790
X -32.94873537 31.88518797 -31.88521646
X -30.50304038 28.51898398 -17.62571903
X -24.10012778 54.95755580 10.09860655
X 7.91443523 37.82295803 -23.37589696
X -33.52608564 6.73240127 -43.57314526
X -26.54582277 43.26959851 -28.51901118
X -37.48330326 16.33992384 -10.09863839
X -13.73999756 27.23320303 -24.35813918
X -13.73999756 12.17905599 -16.83105726
X -30.50304038 39.41225982 -39.41229501
X -25.61165041 20.19723821 -53.67178236
X 3.02304526 31.09052828 -43.57315614
X -26.54582277 29.80476493 -10.89329887
X -25.61165041 37.82296475 -8.32174657
X -32.94873537 56.24332250 -15.05417551
X -36.90595299 22.27768637 -18.42037072
X -7.33708496 41.18916795 -24.35814541
X -42.37469323 49.01977229 -28.51901374
X -33.52608564 26.92966381 -42.77849980
X 3.95721762 27.23320303 -24.35813918
X -11.29430258 54.95755243 2.57153134
X -27.12317304 35.74252332 -28.51900781
X -4.89138997 25.94742623 -21.78658271
X -52.73482345 44.06425484 -24.35814669
X -39.92899824 28.02786015 -18.42037328
X -32.01456301 39.90339452 -14.25951375
X -8.84860759 16.33991039 -40.20693918
X -2.44569499 27.72433180 -12.48260688
X -25.61165041 39.41226397 -30.10831839
X -4.89138997 28.51899486 6.73240799
X -11.87165285 43.26961275 3.36619104
X -2.44569499 56.24331578 -30.10832591
X -22.23178306 46.63581339 -18.42038159
X -2.44569499 14.25947983 -36.04607341
X -18.27456545 56.24331578 -30.10832591
X -21.65443279 24.05458778 -18.42037150
X 11.87165285 16.33992384 -10.09863839
X -9.78277995 24.35811614 -24.35813789
X -13.73999756 31.39407423 -10.09864511
X 0.00000000 26.92968556 5.93775423
X -30.50304038 21.78655918 -26.74210016
X -38.41747561 41.98383181 -3.36622911
X -27.12317304 54.95755243 2.57153134
X -13.73999756 54.16288858 -18.42038495
X -15.25152019 34.45673900 -42.77850317
X -23.16595542 27.72432349 -31.09056013
X -29.56886802 38.12650061 2.57153886
X -35.03760827 30.59941118 -29.31365999
X -43.88621586 33.47450815 -6.73243567
X -11.87165285 29.80476829 -3.36622368
X -52.73482345 19.70613871 -0.00000880
X -21.65443279 10.58974669 -17.62571102
X -42.37469323 62.48461003 -36.84074942
X 0.00000000 37.82296811 -0.79467136
X -24.10012778 33.17097981 -0.79466929
X -11.29430258 65.85082826 -19.21504464
X -13.73999756 31.39406415 -32.67987071
X -21.65443279 46.44821454 -32.67987743
X -7.33708496 46.93935261 -0.00002096
X -42.37469323 25.64390797 6.73240928
X -32.01456301 37.33182925 -35.25142925
X -9.78277995 17.62569054 -35.25142045
X -8.84860759 14.75061789 -3.36621695
X -47.26608320 32.37632684 2.57154143
X -25.61165041 39.41227405 -7.52709281
X -48.77760583 67.13661178 -6.73245072
X -38.41747561 52.87710091 -40.20695550
X -39.92899824 39.90339036 -23.56349036
X -34.46025800 33.96562269 -26.74210560
X -23.16595542 45.35003995 -8.32174993
X -24.10012778 48.22511933 -25.15280302
X -43.88621586 47.92159354 -13.46486286
X -32.01456301 -2.08043392 -3.36620944
X -37.48330326 29.80475741 -27.72435069
X -51.22330082 57.03797468 -20.19728766
X -29.56886802 47.43045963 -36.84074270
X -16.76304282 25.64388700 -40.20694334
X -12.80582520 24.35812781 1.77689054
X 0.00000000 32.67984431 -27.72435197
X -43.88621586 14.25947647 -43.57314861
X -25.61165041 16.03638125 -36.04607421
X -29.56886802 12.17904927 -31.88520766
X -48.77760583 25.15276574 -35.25142381
X -35.97178063 52.08244378 -46.14472140
X -7.91443523 32.67984766 -20.19727677
X -19.20873781 11.38440302 -13.46484653
X -32.01456301 48.22511596 -32.67987823
X -6.40291260 24.84924492 -12.48260560
X -20.72026044 32.67984094 -35.25142717
X -23.16595542 52.08244793 -36.84074478
X -10.36013022 49.51089612 -27.72435949
X -47.84343347 22.27767549 -42.77849772
X -44.82038822 39.90340203 2.57153807
X -43.30886559 52.87710427 -32.67988030
X -27.12317304 17.13457760 -11.68794769
X -21.65443279 21.48304013 -0.00000959
X -24.10012778 30.59941869 -12.48260817
X -30.50304038 39.41226989 -16.83106942
X -39.92899824 30.59942126 -6.73243439
X -16.76304282 38.12648558 -31.09056477
X -24.10012778 34.76027902 -22.58124112
X -6.40291260 50.79668795 3.36618767
X -35.97178063 20.99190462 -26.92969228
X -23.16595542 18.42035103 -21.78657935
X -44.82038822 54.95753820 -29.31367087
X 9.42595786 46.63582011 -3.36623119
X -46.33191084 39.41227069 -15.05416800
X -35.97178063 42.77846717 -46.14471725
X -19.20873781 12.97371055 -16.64346514
X -19.20873781 2.08042384 -19.21501616
X -38.41747561 26.92968892 13.46482943
X -6.40291260 30.59941038 -31.09056141
X -35.97178063 25.15278414 5.93775502
X -20.72026044 28.51898398 -17.62571903
X -60.64925868 37.33184349 -3.36622704
X -54.24634608 35.25139949 -29.31366207
X -25.61165041 21.78657006 -2.38397315
X -43.88621586 36.04604910 -40.20694798
X -27.12317304 18.11682526 -10.09863918
X -20.72026044 25.94742623 -21.78658271
X -25.61165041 2.57154767 -18.42036191
X -29.56886802 46.44822127 -17.62572703
X -25.61165041 21.78656255 -19.21502496
X -48.77760583 60.40418283 -25.15280846
X -32.01456301 34.76028159 -16.83106733
X -15.82887046 48.71624395 -22.58124736
X -39.92899824 33.17096557 -32.67987150
X -6.40291260 23.86699566 -17.62571695
X -40.86317060 56.24332587 -7.52710032
X -39.35164797 33.96562190 -28.51900702
X -41.44052087 24.35811278 -31.88521309
X -25.61165041 44.55538283 -14.25951582
X -4.89138997 48.71625403 -0.00002176
X -42.37469323 43.26960524 -13.46486078
X -2.44569499 45.35002907 -32.67987694
X -17.69721518 31.09052413 -52.87713276
X -17.69721518 32.67985934 5.93775166
X -15.25152019 34.45675324 -10.89330095
X -52.73482345 30.59941118 -29.31365999
X -10.36013022 14.25948319 -28.51899822
X -21.65443279 40.69805501 -0.79467265
X -12.80582520 36.84070878 -28.51900830
X -37.48330326 34.94787034 -25.15279710
X -24.10012778 61.68996042 -25.94746351
X -39.92899824 41.49269709 -28.51901038
X -39.92899824 53.36822138 -46.93937645
X -42.37469323 29.80477245 5.93775295
X -39.92899824 26.43854590 -30.29590508
X -19.20873781 41.49271133 3.36619183
X -44.82038822 41.49269374 -36.04608558
