4096
# (c) 2025 a-prokhoda (Alexander S. Prokhoda)# Part of Quasicrystals Research Project
X -1.37638192 14.15541056 -15.60263745
X -16.64069133 16.77344076 -24.07477457
X 0.00000000 13.70820394 -0.00000612
X -15.79004052 14.15540866 -19.83870542
X -14.41365860 2.34163870 -4.68328262
X -11.33597506 15.60262375 -16.49706528
X -16.64069133 9.19573877 -8.91935365
X -1.37638192 25.52197435 -14.15542893
X -13.03727668 11.81377421 -5.68328685
X -12.18662587 17.66787049 -18.39149339
X -10.81024395 7.30131895 7.57770551
X -11.66089476 12.26098550 -10.81378221
X -4.12914576 8.02491519 -16.04984831
X -14.41365860 6.13049159 -8.02492510
X -12.18662587 16.77345301 3.34163330
X -15.26430941 13.98459545 -3.78886063
X -3.60341465 21.00951441 -11.36657253
X -1.37638192 24.07476538 -3.78886513
X -4.12914576 14.15541479 -6.13050149
X -7.20682930 20.73311912 -16.04985398
X -14.41365860 9.02491753 -10.81378077
X -11.66089476 11.36656146 -3.78885946
X -6.35617849 20.11508702 -11.81378573
X -1.37638192 10.36655957 -8.02492699
X 0.85065081 7.30131472 -1.89443045
X -8.58321122 24.07476772 1.44720285
X -8.58321122 17.94427236 0.99999199
X -4.97979657 8.30131472 -1.89443090
X -5.83044738 21.73312714 1.89441749
X -21.09475678 18.22065963 -12.26099847
X -13.03727668 9.47213173 -9.47214019
X -4.97979657 4.51245571 -12.26099236
X -10.81024395 6.40688544 -6.57771163
X -9.95959314 13.70819781 -13.70821005
X -13.56300779 14.87902094 -7.57771541
X -21.62048790 19.83869173 -16.49706717
X -4.97979657 19.11508892 -7.57771730
X -7.20682930 11.36655767 -12.26099541
X -13.88792749 11.53738270 -1.89443234
X -6.35617849 16.32623224 -12.70821122
X -8.58321122 25.52197246 -18.39149691
X -11.66089476 25.96919322 -2.34165238
X -4.97979657 15.32623793 -0.00000684
X -22.47113870 7.30131283 -6.13049843
X -10.81024395 16.32623603 -4.23607527
X -3.60341465 14.87901715 -16.04985136
X -14.93938971 16.77344878 -6.13050266
X -20.24410598 24.07476349 -8.02493311
X -7.73256041 20.56230211 -8.47214514
X -9.43386203 9.19574445 3.78885028
X -13.03727668 17.04984029 -9.91935717
X -4.97979657 22.90394414 -5.68329180
X -18.86772405 17.49705348 -10.81378455
X -2.75276384 18.39148276 -6.13050338
X -16.64069133 14.43180864 -4.68328802
X -15.26430941 13.43180820 -5.68328757
X -9.43386203 24.35115500 -11.81378762
X -22.47113870 18.66787617 -5.68328991
X -19.39345517 9.19573833 -9.91935366
X -7.20682930 7.57770668 -4.68328496
X -17.16642244 23.62755263 -1.89443774
X -13.03727668 19.39147475 -24.07477574
X -7.20682930 5.23606609 -4.23607032
X -15.79004052 25.52197435 -14.15542893
X -6.35617849 23.35115734 -6.57771919
X -4.45406546 19.83869362 -12.26099920
X -15.79004052 25.52197246 -18.39149691
X -2.22703273 15.32622801 -22.18034673
X -13.03727668 17.94427425 5.23605997
X -9.95959314 9.91934068 -19.83870353
X -10.81024395 23.35115923 -2.34165121
X -2.22703273 20.56230590 -0.00000918
X -8.58321122 12.70820394 -0.00000567
X -11.66089476 9.91934068 -19.83870353
X -13.03727668 -0.44721698 -7.57770857
X -17.16642244 17.49705727 -2.34164860
X -3.60341465 17.22065774 -16.49706600
X -18.86772405 23.62754696 -14.60264168
X -13.88792749 20.56230211 -8.47214514
X -12.18662587 16.77345112 -0.89443468
X -4.97979657 10.64295341 -6.57771351
X 0.85065081 24.79837009 -8.47214703
X -5.83044738 4.23606420 -8.47213785
X 2.22703273 12.98458976 -16.49706411
X -9.95959314 19.83870165 5.68327271
X -14.41365860 7.57770857 -0.44721698
X -4.97979657 22.90394270 -8.91935978
X -2.75276384 19.83869596 -7.02493122
X -3.60341465 18.66787661 -4.68328991
X -11.33597506 19.39148277 -6.13050383
X -14.41365860 18.39147853 -15.60263934
X 4.45406546 17.49705537 -6.57771658
X -7.20682930 9.91934302 -14.60263555
X -8.58321122 10.91934492 -10.36656802
X -9.43386203 3.06524674 -1.89442856
X -8.58321122 13.26098696 -7.57771469
X -23.84752062 6.85410197 -0.00000306
X -7.73256041 9.19573453 -18.39148961
X -6.35617849 16.32622801 -22.18034718
X -7.20682930 24.52197813 -5.68329252
X -12.18662587 4.51245949 -3.78885640
X -17.49134213 17.04984029 -9.91935717
X -16.64069133 24.35115500 -11.81378762
X -13.56300779 24.79837198 -4.23607905
X -7.20682930 22.18033421 -12.70821384
X 0.00000000 23.62754696 -14.60264168
X -7.20682930 5.23606798 -0.00000234
X -15.26430941 7.30130904 -14.60263439
X -24.69817143 15.60262564 -12.26099730
X -20.24410598 10.36655767 -12.26099497
X -14.41365860 12.26098740 -6.57771424
X -10.28451284 10.36655767 -12.26099497
X -3.60341465 1.17082124 1.89442667
X -1.37638192 8.02491898 -7.57771235
X -7.20682930 18.39148087 -10.36657136
X -9.95959314 6.13049159 -8.02492510
X -10.81024395 27.14001446 -0.44722571
X -13.03727668 24.07476349 -8.02493311
X -19.39345517 10.64295341 -6.57771351
X -18.01707325 4.95967647 3.78885217
X 2.22703273 16.77345068 -1.89443468
X -10.81024395 2.61803021 -8.47213713
X -13.03727668 15.60262330 -17.49706528
X -5.83044738 4.23606798 -0.00000189
X -16.64069133 9.19574067 -4.68328568
X -10.81024395 26.24557861 -19.83871082
X -10.81024395 18.66787661 -4.68328991
X -7.20682930 23.62754651 -15.60264168
X -6.35617849 27.14001257 -4.68329369
X -11.66089476 12.26098740 -6.57771424
X -4.12914576 21.73312524 -2.34165049
X -4.97979657 5.40688354 -10.81377916
X -14.41365860 19.83868939 -21.73313515
X -9.95959314 23.62755263 -1.89443774
X -17.49134213 13.26098506 -11.81378266
X -8.58321122 16.49705348 -10.81378411
X 0.00000000 9.91934492 -10.36656758
X -18.86772405 13.70820394 -0.00000612
X -7.20682930 2.34163681 -8.91935060
X -18.01707325 30.92886546 -8.02493617
X -10.81024395 1.17081557 -10.81377727
X -13.56300779 4.95966656 -18.39148773
X -8.58321122 21.73312714 1.89441749
X -8.58321122 -0.44721887 -11.81377655
X -13.56300779 14.87901949 -10.81378338
X -18.01707325 12.53738504 3.34163519
X -13.56300779 24.79836820 -12.70821501
X -2.22703273 12.98459355 -8.02492816
X -22.47113870 8.74852558 -8.02492627
X 2.22703273 3.06524296 -10.36656452
X -13.88792749 12.98458976 -16.49706411
X -0.52573111 12.98459545 -3.78886018
X -13.56300779 8.74852558 -8.02492627
X -1.37638192 19.39148277 -6.13050383
X -15.26430941 18.66787617 -5.68328991
X -4.97979657 18.22065963 -12.26099847
X -8.58321122 5.68327505 -14.60263366
X -7.73256041 9.19574022 -5.68328568
X -12.18662587 6.85409395 -17.94427498
X -15.26430941 14.87902139 -6.57771541
X -18.01707325 12.53737701 -14.60263672
X -15.26430941 8.74851944 -21.73313020
X -22.47113870 16.32623603 -4.23607527
X -5.83044738 8.02492321 1.89442361
X -9.43386203 25.24558284 -10.36657442
X -0.00000000 -0.00000378 -8.47213596
X -11.66089476 13.70819591 -17.94427803
X -1.37638192 16.49705114 -16.04985208
X -12.18662587 8.30131283 -6.13049888
X -13.03727668 6.57771046 3.78885145
X 0.85065081 4.95966846 -14.15541975
X -4.12914576 13.26098506 -11.81378266
X -4.97979657 14.43180440 -14.15542397
X -14.41365860 7.57770055 -18.39148889
X -20.24410598 1.89442361 -8.02492321
X -11.66089476 16.04983839 -14.15542469
X -15.79004052 17.94426200 -22.18034790
X -14.41365860 27.41640363 -9.47214820
X -15.79004052 16.49704925 -20.28592006
X -13.03727668 25.52197435 -14.15542893
X -10.81024395 16.32623414 -8.47214325
X -9.43386203 29.03443807 -8.47214892
X -12.18662587 16.77344265 -19.83870659
X -8.58321122 14.15541524 -5.13050149
X -9.43386203 12.98459779 1.44720780
X -20.24410598 8.02491709 -11.81378033
X -10.81024395 -1.17082691 -14.60263061
X -12.18662587 12.09016427 -12.70820933
X -4.97979657 16.77344878 -6.13050266
X -4.97979657 16.77344454 -15.60263861
X -8.58321122 17.04983650 -18.39149312
X -12.18662587 10.64295531 -2.34164554
X -7.20682930 17.49705114 -16.04985253
X -9.43386203 24.35115311 -16.04985560
X -5.83044738 15.60262375 -16.49706528
X -13.03727668 11.81377655 -0.44721887
X -4.12914576 21.73312335 -6.57771847
X -8.58321122 15.60262754 -8.02492933
X -13.03727668 20.28591440 3.78884532
X -15.26430941 15.77344499 -14.60263816
X -6.35617849 11.09016572 -9.47214091
X 4.45406546 6.13048780 -16.49706106
X -11.66089476 25.96919511 1.89441560
X -8.58321122 17.94426389 -17.94427992
X -7.20682930 19.83869975 1.44720474
X -9.43386203 16.77344644 -11.36657064
X -11.66089476 19.83869596 -7.02493122
X -20.24410598 20.28590448 -18.39149456
X -2.75276384 22.18033610 -8.47214586
X -18.86772405 17.49705537 -6.57771658
X -14.41365860 13.70820249 -3.23607410
X -4.12914576 12.70820204 -4.23607365
X -1.37638192 8.02491329 -20.28591628
X -2.22703273 6.85409819 -8.47213902
X -0.52573111 15.32623224 -12.70821077
X -14.41365860 22.18033565 -9.47214586
X -21.09475678 15.32623793 -0.00000684
X -9.95959314 8.47213218 -8.47213974
X -4.97979657 12.98459165 -12.26099613
X -16.64069133 21.45673140 -3.78886396
X -15.26430941 17.22066577 1.44720591
X 0.00000000 17.49705537 -6.57771658
X -10.81024395 12.53738081 -6.13050077
X -5.83044738 20.28590637 -14.15542659
X -20.24410598 14.15541100 -14.60263744
X -5.83044738 13.26099119 1.89442127
X -8.05748011 11.09016572 -9.47214091
X -7.20682930 17.49705917 1.89441938
X -15.79004052 21.73311912 -16.04985443
X -15.79004052 24.07476160 -12.26100109
X -8.58321122 14.15542092 7.57770244
X -12.18662587 15.32623224 -12.70821077
X -3.60341465 11.09016003 -22.18034484
X -11.66089476 12.26098696 -7.57771424
X -4.12914576 5.68327271 -19.83870165
X -12.18662587 19.11508892 -7.57771730
X -12.18662587 17.66787238 -14.15542542
X -7.20682930 3.78885334 -2.34164248
X -13.03727668 13.26098506 -11.81378266
X -21.09475678 9.19574022 -5.68328568
X 2.22703273 3.06524107 -14.60263250
X -7.20682930 9.91934492 -10.36656758
X -8.05748011 14.87902518 1.89442055
X -3.60341465 13.43180630 -9.91935555
X 4.45406546 19.83869362 -12.26099920
X -20.24410598 10.36656146 -3.78885901
X -2.22703273 16.77345068 -1.89443468
X -12.18662587 16.77344499 -14.60263861
X -11.66089476 22.18033989 -0.00000990
X -15.26430941 13.43181054 -0.44721959
X 3.07768354 14.15541669 -1.89443351
X -14.41365860 21.28590448 -18.39149501
X -3.60341465 12.53737891 -10.36656874
X -14.41365860 7.57770668 -4.68328496
X -7.20682930 12.26098550 -10.81378221
X -10.28451284 15.60262564 -12.26099730
X -4.97979657 19.11508324 -20.28592123
X 3.07768354 15.60262944 -3.78886135
X -17.49134213 13.26098696 -7.57771469
X -23.84752062 26.69279370 -16.49707024
X -13.03727668 20.28590826 -9.91935861
X -7.20682930 16.04984263 -4.68328874
X -9.95959314 16.04983839 -14.15542469
X 0.85065081 24.79837198 -4.23607905
X 0.00000000 22.18033187 -17.94428182
X -22.47113870 11.09016995 -0.00000495
X -8.05748011 12.53737891 -10.36656874
X -16.64069133 14.43180674 -8.91935599
X -9.43386203 10.64295341 -6.57771351
X -9.43386203 10.64295531 -2.34164554
X 0.85065081 16.32623224 -12.70821122
X -13.03727668 3.34163825 -5.68328307
X -8.58321122 15.60262520 -13.26099731
X -11.33597506 19.39147898 -14.60263978
X -9.43386203 16.77344076 -24.07477457
X -18.86772405 7.57770623 -5.68328496
X -23.84752062 15.32623180 -13.70821078
X -4.12914576 19.39148277 -6.13050383
X -8.58321122 11.81376997 -15.15542281
X -11.66089476 25.96919133 -6.57772036
X -4.45406546 9.91934871 -1.89443162
X -11.33597506 10.36656146 -3.78885901
X -7.20682930 1.44720897 -10.36656380
X -15.26430941 20.11508513 -16.04985370
X -4.12914576 12.70820015 -8.47214163
X -12.18662587 6.85409585 -13.70820700
X -8.58321122 24.07476583 -2.78886513
X -9.43386203 22.90394414 -5.68329180
X -9.95959314 15.15541290 -10.36656991
X -4.97979657 20.56229599 -22.18034907
X -9.43386203 20.56229977 -13.70821312
X -17.49134213 17.94427002 -4.23607599
X -14.41365860 0.00000000 0.00000000
X -18.01707325 -1.17082502 -10.36656263
X -5.83044738 16.49704925 -20.28592006
X -14.41365860 6.13049204 -7.02492510
X -23.84752062 9.19573833 -9.91935366
X -7.20682930 28.31083336 -3.78886702
X -8.58321122 10.36656569 5.68327695
X -7.20682930 25.96919133 -6.57772036
X -8.58321122 26.41640786 -0.00001179
X -14.93938971 20.56230022 -12.70821312
X -1.37638192 20.28591016 -5.68329063
X -7.20682930 22.18032998 -22.18034979
X -14.41365860 32.09968670 -6.13050950
X -13.03727668 10.36656001 -7.02492699
X -14.41365860 25.96919133 -6.57772036
X -4.97979657 20.56230400 -4.23607716
X 3.07768354 8.02491519 -16.04984831
X -8.58321122 17.04984029 -9.91935717
X -8.58321122 9.47213217 -8.47214018
X -20.24410598 8.02491753 -10.81378032
X -12.18662587 16.77345491 7.57770127
X -6.35617849 27.14001446 -0.44722571
X -3.60341465 13.43180251 -18.39149150
X 0.85065081 24.79837387 -0.00001107
X 0.85065081 18.66787238 -14.15542586
X -0.52573111 22.90394270 -8.91935978
X -21.09475678 22.90394270 -8.91935978
X -21.62048790 16.04984218 -5.68328874
X -19.39345517 14.43181053 -0.44722004
X -15.26430941 12.53737657 -15.60263672
X -8.05748011 17.22065963 -12.26099803
X -13.03727668 14.15541669 -1.89443351
X -10.81024395 30.92886735 -3.78886819
X -10.28451284 14.15541100 -14.60263744
X -13.03727668 24.07476772 1.44720285
X -9.43386203 10.64295297 -7.57771352
X -14.41365860 23.62755074 -6.13050572
X -7.20682930 23.62754462 -19.83870965
X -5.83044738 25.52197813 -5.68329297
X -8.05748011 13.43180440 -14.15542352
X -8.58321122 10.91934681 -6.13050004
X -13.03727668 16.49705727 -2.34164815
X -9.43386203 5.40688354 -10.81377916
X -9.43386203 16.77345491 7.57770127
X -6.35617849 11.09016426 -12.70820888
X -1.37638192 27.86361494 -14.60264357
X 6.68109819 9.19573453 -18.39148961
X -26.07455335 23.62755263 -1.89443774
X -2.22703273 6.85409629 -12.70820699
X -10.81024395 29.48164893 -14.60264429
X -4.97979657 19.11508513 -16.04985325
X -5.83044738 21.73312335 -6.57771847
X -3.60341465 11.09016806 -4.23607293
X -13.56300779 11.09016572 -9.47214091
X -13.03727668 6.57770478 -8.91935249
X -4.12914576 17.94427192 -0.00000801
X -9.95959314 13.70820394 -0.00000612
X -10.81024395 -3.51246561 -9.91934799
X -21.62048790 -0.00000378 -8.47213596
X -8.58321122 19.39147664 -19.83870776
X -10.81024395 22.45672761 -12.26100037
X -10.81024395 12.53738125 -5.13050077
X -8.58321122 24.07476961 5.68327082
X -6.35617849 10.19573833 -9.91935411
X 0.00000000 6.13048970 -12.26099308
X -13.03727668 11.81376618 -23.62755876
X 2.22703273 20.56230590 -0.00000918
X -14.41365860 9.91934258 -15.60263556
X -26.07455335 6.13049159 -8.02492510
X -22.47113870 21.00951865 -1.89443657
X -20.24410598 21.73311723 -20.28592240
X -18.86772405 9.91934068 -19.83870353
X -1.37638192 16.49705493 -7.57771613
X -4.97979657 22.90394838 3.78884416
X -11.66089476 9.91933879 -24.07477151
X -16.64069133 19.11508324 -20.28592123
X -9.95959314 14.60262754 -8.02492888
X -13.56300779 13.43180251 -18.39149150
X -12.18662587 3.06524485 -6.13049654
X -7.20682930 22.18033376 -13.70821384
X -12.18662587 12.09016995 -0.00000540
X -15.26430941 14.87902329 -2.34164743
X 0.85065081 11.09016995 -0.00000495
X -10.81024395 19.56230400 -4.23607671
X -1.37638192 15.60263367 5.68327461
X -20.24410598 19.39148277 -6.13050383
X -23.84752062 9.19573453 -18.39148961
X -13.03727668 4.23606609 -4.23606987
X -1.37638192 11.81377041 -14.15542280
X 0.85065081 11.09016616 -8.47214091
X -7.20682930 5.23606230 -12.70820627
X -2.22703273 15.32622990 -17.94427875
X 0.00000000 25.96918710 -16.04985632
X -12.18662587 4.51245571 -12.26099236
X -22.47113870 14.87901949 -10.81378338
X -3.60341465 -1.17082502 -10.36656263
X -7.20682930 6.13048780 -16.49706106
X -15.26430941 12.53737701 -14.60263672
X -16.64069133 22.90394459 -4.68329180
X -1.37638192 13.26098929 -2.34164671
X 0.85065081 11.09016572 -9.47214091
X -6.35617849 13.43180440 -14.15542352
X -10.81024395 12.53738270 -1.89443279
X -8.58321122 22.62754885 -10.36657325
X -10.81024395 28.58722109 -16.04985749
X -8.58321122 20.28590826 -9.91935861
X -7.20682930 16.04983839 -14.15542469
X -6.35617849 17.22066577 1.44720591
X -18.01707325 21.00951063 -19.83870848
X -20.24410598 15.60262564 -12.26099730
X -4.12914576 17.04983839 -14.15542514
X -9.95959314 12.26099119 1.89442172
X -16.64069133 3.06524485 -6.13049654
X -10.81024395 2.61803399 -0.00000117
X -13.56300779 21.00951486 -10.36657253
X -17.16642244 19.83869173 -16.49706717
X -18.86772405 11.36655957 -8.02492744
X -1.37638192 14.15540866 -19.83870542
X 0.00000000 9.91934302 -14.60263555
X -8.58321122 16.49705917 1.89441983
X -10.81024395 7.30131094 -10.36656641
X -21.62048790 9.91934492 -10.36656758
X -7.20682930 7.57770055 -18.39148889
X -10.81024395 28.58722298 -11.81378951
X -9.43386203 22.90393847 -18.39149573
X -6.35617849 18.66787238 -14.15542586
X -16.64069133 8.30131093 -10.36656685
X -18.86772405 13.70819591 -17.94427803
X -8.05748011 12.53737701 -14.60263672
X -22.47113870 4.95967035 -9.91935177
X -5.83044738 14.15541245 -11.36656947
X -14.41365860 23.62754696 -14.60264168
X -3.60341465 27.14000834 -14.15542965
X -18.86772405 16.04984453 -0.44722076
X 2.22703273 19.11508513 -16.04985325
X -14.41365860 27.41639985 -17.94428416
X -7.20682930 19.83869128 -17.49706717
X -12.18662587 19.11508513 -16.04985325
X -11.66089476 16.04984073 -8.91935672
X -2.22703273 16.77344688 -10.36657064
X -14.41365860 15.15541479 -6.13050194
X -15.79004052 14.15540677 -24.07477340
X -20.24410598 27.86361683 -10.36657559
X -10.81024395 17.22066387 -2.78886207
X -13.03727668 10.36656146 -3.78885901
X -15.79004052 11.81377655 -0.44721887
X -11.66089476 11.36655957 -8.02492744
X -23.84752062 14.43181243 3.78884794
X -18.86772405 19.83869741 -3.78886324
X -20.24410598 11.81377465 -4.68328685
X -1.37638192 17.94426389 -17.94427992
X -16.64069133 19.11508892 -7.57771730
X -24.69817143 14.15541479 -6.13050149
X -16.64069133 20.56230400 -4.23607716
X -15.26430941 21.00951865 -1.89443657
X -4.12914576 14.15541669 -1.89443351
X -22.47113870 13.43180440 -14.15542352
X -20.24410598 5.68327695 -10.36656569
X 0.00000000 6.13048780 -16.49706106
X -14.41365860 13.70819825 -12.70821005
X -14.41365860 21.28591016 -5.68329108
X -16.64069133 26.69279937 -3.78886630
X -14.41365860 18.39147898 -14.60263934
X -18.86772405 22.18033610 -8.47214586
X -9.43386203 26.69279559 -12.26100226
X -4.12914576 24.07476772 1.44720285
X -18.86772405 22.18033799 -4.23607788
X -7.20682930 16.04984642 3.78884722
X -14.41365860 23.62754840 -11.36657370
X -13.03727668 14.15541289 -10.36656947
X -20.24410598 1.89441983 -16.49705917
X -5.83044738 17.94426812 -8.47214397
X -22.47113870 18.66787049 -18.39149384
X -14.41365860 13.70820817 9.47212983
X -11.66089476 14.60262564 -12.26099686
X -18.86772405 22.18033989 -0.00000990
X -7.20682930 13.70820438 0.99999388
X -6.35617849 8.74852747 -3.78885829
X -8.05748011 4.95966846 -14.15541975
X -7.73256041 20.56230022 -12.70821312
X -11.33597506 11.81377231 -9.91935483
X -9.43386203 20.56229788 -17.94428109
X -13.03727668 30.20525931 -6.57772225
X -3.60341465 24.79837387 -0.00001107
X -13.56300779 18.66788041 3.78884605
X -20.24410598 16.49704925 -20.28592006
X -4.45406546 13.70820394 -0.00000612
X -16.64069133 9.19574256 -0.44721770
X -13.03727668 5.68327461 -15.60263367
X -10.81024395 26.24557672 -24.07477880
X -2.75276384 16.04983839 -14.15542469
X -13.03727668 16.49705114 -16.04985208
X -8.58321122 23.18033187 -17.94428226
X -4.97979657 10.64295720 1.89442244
X -13.56300779 12.53737701 -14.60263672
X -13.03727668 14.15541524 -5.13050149
X -15.26430941 20.11508892 -7.57771775
X -8.58321122 23.18032998 -22.18035024
X -4.45406546 16.04984218 -5.68328874
X 0.00000000 18.39147853 -15.60263934
X -16.64069133 12.98459165 -12.26099613
X -9.95959314 14.60262944 -3.78886090
X -1.37638192 17.94426768 -9.47214397
X -7.20682930 -2.34164626 -12.26098930
X -7.20682930 28.31082769 -16.49707096
X -17.49134213 5.68327461 -15.60263367
X -8.58321122 16.49704925 -20.28592006
X 0.85065081 18.66787661 -4.68328991
X -12.18662587 11.53738270 -1.89443234
X -13.03727668 20.28591060 -4.68329063
X -13.03727668 17.94427614 9.47212794
X -17.49134213 11.81377421 -5.68328685
X -7.73256041 12.98459545 -3.78886018
X -14.41365860 18.39148043 -11.36657136
X -10.81024395 17.22066342 -3.78886207
X -14.41365860 11.36656001 -7.02492743
X -21.09475678 14.43180820 -5.68328802
X -7.73256041 14.43180251 -18.39149195
X -10.81024395 27.14001023 -9.91936167
X -18.86772405 19.83869785 -2.78886324
X -18.86772405 9.91934302 -14.60263555
X 4.45406546 9.91934302 -14.60263555
X -13.03727668 11.81377041 -14.15542280
X -11.66089476 16.04983650 -18.39149267
X -7.20682930 -0.00000567 -12.70820394
X -18.86772405 8.47213407 -4.23607176
X -4.45406546 16.04984028 -9.91935672
X -9.43386203 16.77344922 -5.13050266
X -11.66089476 23.62755263 -1.89443774
X -0.52573111 19.11509316 1.89441865
X -15.26430941 20.11508702 -11.81378573
X -21.62048790 12.26098127 -20.28591817
X -22.47113870 18.66788041 3.78884605
X -13.56300779 13.43180820 -5.68328757
X 0.85065081 4.95967224 -5.68328379
X -17.49134213 17.04984218 -5.68328919
X -6.35617849 10.19573453 -18.39149006
X -22.47113870 12.53738081 -6.13050077
X -19.39345517 16.77345068 -1.89443468
X -1.37638192 1.89441983 -16.49705917
X -16.64069133 15.32622801 -22.18034673
X -2.22703273 10.64295341 -6.57771351
X 6.68109819 9.19573643 -14.15542164
X -9.43386203 14.43181243 3.78884794
X -12.18662587 12.09016616 -8.47214135
X -26.07455335 19.83869173 -16.49706717
X -15.26430941 18.66787238 -14.15542586
X -9.43386203 16.77345112 -0.89443468
X -4.97979657 11.53737891 -10.36656830
X -8.05748011 16.32623224 -12.70821122
X -3.60341465 30.92886735 -3.78886819
X -21.62048790 3.78885523 1.89442550
X 0.00000000 19.83869362 -12.26099920
X -13.56300779 17.22066342 -3.78886207
X -1.37638192 20.28590448 -18.39149456
X -16.64069133 15.32623369 -9.47214280
X -6.35617849 23.35115545 -10.81378717
X -7.20682930 13.70819591 -17.94427803
X -10.81024395 7.30131283 -6.13049843
X -18.01707325 23.35115311 -16.04985515
X -15.79004052 17.94427002 -4.23607599
X -23.84752062 22.90393847 -18.39149573
X -19.39345517 22.90394414 -5.68329180
X -14.41365860 14.60262375 -16.49706483
X -2.22703273 9.19573643 -14.15542164
X -4.97979657 12.98458553 -25.96920007
X -13.03727668 19.39147898 -14.60263978
X -10.81024395 13.98458976 -16.49706456
X -17.49134213 5.68327650 -11.36656569
X -8.58321122 5.68327461 -15.60263367
X -13.88792749 18.22065774 -16.49706645
X -12.18662587 25.24558662 -1.89443846
X -4.45406546 17.49705917 1.89441938
X -10.81024395 25.69279370 -16.49706979
X -10.81024395 7.85410197 -0.00000351
X -21.09475678 14.43180251 -18.39149195
X -13.56300779 16.32623224 -12.70821122
X -4.97979657 20.56230022 -12.70821312
X -10.81024395 9.64295152 -10.81378105
X -5.83044738 19.39148466 -1.89443585
X -1.37638192 9.47213407 -4.23607221
X -8.58321122 5.68327884 -6.13049771
X -24.69817143 14.15541669 -1.89443351
X -19.39345517 6.85409629 -12.70820699
X -14.41365860 23.62754885 -10.36657370
X -16.64069133 12.09016427 -12.70820933
X -9.43386203 10.64295152 -10.81378149
X -3.60341465 28.58722487 -7.57772153
X -22.47113870 18.66787427 -9.91935789
X -20.24410598 8.02492132 -2.34164437
X 3.07768354 14.15541479 -6.13050149
X -26.07455335 23.62754885 -10.36657370
X -17.49134213 13.26098127 -20.28591862
X -14.41365860 22.18033799 -4.23607788
X -18.01707325 10.19574445 3.78884983
X -7.20682930 6.13049348 -3.78885712
X -2.75276384 21.28590448 -18.39149501
X -14.41365860 23.62755263 -1.89443774
X -19.39345517 19.11508702 -11.81378528
X -26.07455335 9.91934682 -6.13049960
X -10.81024395 18.66786815 -23.62756182
X -6.35617849 18.66787851 -0.44722193
X -17.49134213 15.60262754 -8.02492933
X -13.03727668 16.49705537 -6.57771613
X -0.52573111 18.22065963 -12.26099847
X -11.66089476 17.49705727 -2.34164860
X -9.43386203 0.72360237 -9.91934988
X -22.47113870 11.09016572 -9.47214091
X -8.58321122 12.70820015 -8.47214163
X -13.88792749 16.77344499 -14.60263861
X -12.18662587 12.98458742 -21.73313209
X 3.07768354 19.39147898 -14.60263978
X -0.52573111 11.53737701 -14.60263627
X -4.97979657 10.64295107 -11.81378150
X -10.81024395 -3.51246750 -14.15541596
X -10.81024395 16.32623224 -12.70821122
X -10.81024395 18.66787238 -14.15542586
X -20.24410598 8.02491898 -7.57771235
X -10.81024395 4.95967647 3.78885217
X -10.81024395 21.00951441 -11.36657253
X -14.41365860 2.34164248 3.78885334
X -12.18662587 14.43181243 3.78884794
X -5.83044738 14.15541669 -1.89443351
X -18.86772405 17.49705727 -2.34164860
X -22.47113870 16.32623224 -12.70821122
X -15.79004052 14.15541056 -15.60263745
X -21.62048790 6.13049159 -8.02492510
X -7.20682930 19.83869362 -12.26099920
X -16.64069133 19.11509316 1.89441865
X -9.43386203 12.98459968 5.68327578
X -11.66089476 18.39147898 -14.60263934
X -5.83044738 27.86362061 -1.89443963
X -22.47113870 21.00951297 -14.60264051
X -10.81024395 12.53737657 -15.60263672
X -6.35617849 12.53737891 -10.36656874
X 6.68109819 20.56230590 -0.00000918
X -12.18662587 26.69279370 -16.49707024
X -11.33597506 10.36655957 -8.02492699
X -7.20682930 17.49705537 -6.57771658
X -21.09475678 12.98459545 -3.78886018
X -15.79004052 8.02491898 -7.57771235
X -6.35617849 8.74852178 -16.49706222
X -18.01707325 4.95967224 -5.68328379
X -0.52573111 6.85409395 -17.94427498
X -2.22703273 14.43180674 -8.91935599
X -17.49134213 16.49705537 -6.57771613
X -3.60341465 4.95967080 -8.91935177
X -11.33597506 14.15541669 -1.89443351
X -6.68109819 16.77344499 -14.60263861
X -18.01707325 11.09016572 -9.47214091
X -4.97979657 15.32623224 -12.70821077
X -13.03727668 17.94426578 -13.70821195
X -13.03727668 17.94427236 0.99999199
X -17.49134213 10.36655577 -16.49706294
X -11.66089476 14.60262754 -8.02492888
X -14.41365860 3.78885100 -7.57771046
X -11.66089476 19.83869741 -3.78886324
X -10.81024395 -1.17082502 -10.36656263
X -3.60341465 6.40688544 -6.57771163
X -17.16642244 13.70820205 -4.23607410
X -18.86772405 17.49705493 -7.57771658
X -12.18662587 16.77344076 -24.07477457
X -14.93938971 9.19574022 -5.68328568
X -2.75276384 15.15541290 -10.36656991
X -18.01707325 28.58722298 -11.81378951
X -12.18662587 12.98458932 -17.49706412
X -12.18662587 12.98459355 -8.02492816
X -9.95959314 9.91934258 -15.60263556
X -7.20682930 20.73312101 -11.81378600
X -28.30158608 20.56230022 -12.70821312
X -15.26430941 17.22065963 -12.26099803
X -17.16642244 23.62754885 -10.36657370
X -0.52573111 19.11509126 -2.34164932
X -13.56300779 18.66787851 -0.44722193
X -7.73256041 11.53737701 -14.60263627
X 0.00000000 17.49705727 -2.34164860
X 0.00000000 12.26098696 -7.57771424
X -12.18662587 25.24558095 -14.60264240
X -8.58321122 16.49705727 -2.34164815
X 2.22703273 6.85410197 -0.00000306
X -10.81024395 17.22066197 -7.02493005
X -14.41365860 1.44720708 -14.60263178
X -15.26430941 11.09016616 -8.47214091
X -21.09475678 9.19573833 -9.91935366
X -10.81024395 11.09016806 -4.23607293
X -7.73256041 16.77344878 -6.13050266
X -7.73256041 9.19573643 -14.15542164
X -18.86772405 16.04984263 -4.68328874
X -13.03727668 10.36655577 -16.49706294
X -3.60341465 21.00951675 -6.13050455
X -6.68109819 12.98458976 -16.49706411
X -8.58321122 9.47212983 -13.70820817
X 0.00000000 12.26098127 -20.28591817
X -10.81024395 11.09016616 -8.47214091
X -14.41365860 29.75804233 -14.15543082
X -19.39345517 15.32622801 -22.18034673
X -10.81024395 11.09016426 -12.70820888
X -11.33597506 8.02491519 -16.04984831
X -15.79004052 13.26098929 -2.34164671
X -16.64069133 6.85409774 -9.47213902
X -7.20682930 32.09968292 -14.60264546
X -3.60341465 19.56230167 -9.47214469
X -12.18662587 21.45672950 -8.02493194
X -8.58321122 20.28591440 3.78884532
X -7.20682930 19.83868750 -25.96920313
X -16.64069133 16.77344454 -15.60263861
X -21.09475678 18.22066153 -8.02493050
X 2.22703273 10.64295720 1.89442244
X -16.64069133 12.98458932 -17.49706412
X -14.41365860 22.18033989 -0.00000990
X -13.03727668 16.49705348 -10.81378411
X -21.09475678 9.19573453 -18.39148961
X -10.81024395 13.43181243 3.78884839
X -20.24410598 14.15541056 -15.60263745
X -14.41365860 16.04984073 -8.91935672
X -22.47113870 18.66787472 -8.91935789
X -2.75276384 8.47213218 -8.47213974
X -3.60341465 30.92886168 -16.49707213
X -8.58321122 19.39147898 -14.60263978
X -4.45406546 12.26098506 -11.81378222
X -10.81024395 7.30131328 -5.13049843
X -18.86772405 13.70819825 -12.70821005
X -10.81024395 8.74852134 -17.49706223
X -6.35617849 20.11508324 -20.28592168
X -23.84752062 14.43180674 -8.91935599
X -22.47113870 13.43180630 -9.91935555
X -12.18662587 6.85409629 -12.70820699
X -20.24410598 17.94427192 -0.00000801
X -19.39345517 26.69279370 -16.49707024
X -16.64069133 14.43180820 -5.68328802
X 0.85065081 12.53737701 -14.60263672
X -9.95959314 3.78884911 -11.81377844
X 3.07768354 11.81376852 -18.39149078
X -3.60341465 24.79836397 -22.18035096
X -3.60341465 23.35115500 -11.81378717
X -15.79004052 11.81377276 -8.91935482
X -1.37638192 1.89442550 -3.78885523
X -0.52573111 19.11508747 -10.81378528
X -18.01707325 8.74853170 5.68327767
X -22.47113870 13.43180251 -18.39149150
X -1.37638192 27.86361872 -6.13050761
X -8.58321122 14.15541669 -1.89443351
X -23.84752062 12.98459545 -3.78886018
X -6.35617849 16.32623369 -9.47214325
X -10.28451284 8.02491709 -11.81378033
X -18.01707325 8.74852368 -12.26099425
X -8.58321122 17.94427192 -0.00000801
X -9.95959314 6.13049348 -3.78885712
X -6.35617849 13.98459545 -3.78886063
X -23.84752062 9.19573643 -14.15542164
X -2.75276384 16.04984073 -8.91935672
X -4.97979657 18.22066342 -3.78886252
X -7.20682930 22.18033187 -17.94428182
X -5.83044738 17.94427002 -4.23607599
X -12.18662587 10.64294918 -16.04984947
X -20.24410598 13.26099119 1.89442127
X -8.58321122 18.83869362 -12.26099875
X -19.39345517 19.11508892 -7.57771730
X -18.01707325 14.87901715 -16.04985136
X -7.20682930 25.96918899 -11.81378834
X -3.60341465 17.22065540 -21.73313398
X -15.26430941 13.43180630 -9.91935555
X -11.66089476 12.26098506 -11.81378222
X -4.97979657 6.85409585 -13.70820700
X -4.12914576 11.81376852 -18.39149078
X -9.95959314 17.49705537 -6.57771658
X 0.00000000 9.91934871 -1.89443162
X -16.64069133 11.53737701 -14.60263627
X 4.45406546 23.62755263 -1.89443774
X -21.09475678 11.53738270 -1.89443234
X -10.81024395 12.53737467 -19.83870470
X -12.18662587 15.32622990 -17.94427875
X -20.24410598 8.02491329 -20.28591628
X -21.62048790 9.91934682 -6.13049960
X -8.05748011 21.00951486 -10.36657253
X -15.79004052 15.60262988 -2.78886135
X -12.18662587 15.32623180 -13.70821078
X -9.43386203 6.85410008 -4.23607104
X -14.41365860 28.31082769 -16.49707096
X -2.22703273 26.69279370 -16.49707024
X -15.79004052 10.36655577 -16.49706294
X -4.97979657 9.19574445 3.78885028
X 0.00000000 23.62755263 -1.89443774
X -12.18662587 15.32623413 -8.47214280
X -21.62048790 25.96918899 -11.81378834
X -5.83044738 8.02491753 -10.81378032
X -20.24410598 24.07476538 -3.78886513
X -2.75276384 13.70820394 -0.00000612
X -7.20682930 11.36656001 -7.02492743
X -3.60341465 21.00950874 -24.07477646
X -12.18662587 24.35115122 -20.28592357
X -17.49134213 14.15541479 -6.13050149
X -7.20682930 13.70820628 5.23606186
X -10.81024395 18.66787427 -9.91935789
X -15.79004052 21.73312335 -6.57771847
X -1.37638192 17.94426200 -22.18034790
X -9.95959314 21.28590637 -14.15542704
X -23.84752062 19.11508892 -7.57771730
X -4.12914576 20.28591060 -4.68329063
X -10.81024395 7.30131706 3.34163753
X -14.41365860 12.26099119 1.89442172
X -4.97979657 17.66787428 -9.91935744
X -21.62048790 22.18033565 -9.47214586
X -18.01707325 10.19574066 -4.68328612
X -17.16642244 12.26098127 -20.28591817
X -9.43386203 15.32622801 -22.18034673
X -4.45406546 13.70820205 -4.23607410
X -11.66089476 13.70819825 -12.70821005
X -7.20682930 9.91934258 -15.60263556
X -21.09475678 14.43180440 -14.15542397
X -12.18662587 5.40688922 1.89442478
X -8.05748011 13.43180630 -9.91935555
X -13.03727668 12.70820394 -0.00000567
X -18.86772405 3.78884911 -11.81377844
X -9.95959314 18.39148087 -10.36657136
X -17.49134213 12.70820204 -4.23607365
X -11.66089476 18.39148276 -6.13050338
X -7.20682930 16.04983227 -27.86362863
X -8.58321122 9.47213173 -9.47214019
X -10.81024395 11.09016572 -9.47214091
X -3.60341465 -1.17082124 -1.89442667
X 2.22703273 19.11508702 -11.81378528
X -20.24410598 9.47213217 -8.47214018
X -9.95959314 11.36655957 -8.02492744
X -15.79004052 19.39147898 -14.60263978
X -21.09475678 10.64295297 -7.57771352
X -1.37638192 8.02491943 -6.57771235
X -10.81024395 19.56230211 -8.47214469
X -2.75276384 6.13048970 -12.26099308
X -1.37638192 9.47213217 -8.47214018
X -7.20682930 22.18033799 -4.23607788
X -7.20682930 14.60262944 -3.78886090
X -17.49134213 11.81377041 -14.15542280
X 0.85065081 13.43180630 -9.91935555
X 0.00000000 12.26098316 -16.04985019
X -10.81024395 33.27050416 -12.70821879
X -0.52573111 15.32623793 -0.00000684
X -6.35617849 17.22066197 -7.02493005
X -8.58321122 30.20525931 -6.57772225
X -13.56300779 8.74852178 -16.49706222
X -2.75276384 16.04984218 -5.68328874
X -7.20682930 17.49705348 -10.81378455
X -7.20682930 1.44721086 -6.13049582
X -22.47113870 18.66787661 -4.68328991
X -8.58321122 17.94427002 -4.23607599
X 0.00000000 6.13049348 -3.78885712
X -14.41365860 3.78885145 -6.57771046
X 0.85065081 14.87902094 -7.57771541
X -8.05748011 14.87901526 -20.28591934
X -21.62048790 29.75804233 -14.15543082
X -9.43386203 14.43180674 -8.91935599
X -14.41365860 13.70820394 -0.00000612
X -15.79004052 9.47213028 -12.70820816
X -13.03727668 12.70819825 -12.70820960
X -21.09475678 12.98459355 -8.02492816
X -20.24410598 11.81377655 -0.44721887
X -4.97979657 12.98459400 -7.02492816
X -16.64069133 20.56230211 -8.47214514
X -28.30158608 16.77344688 -10.36657064
X -13.03727668 1.89442361 -8.02492321
X -28.30158608 16.77344499 -14.60263861
X -9.43386203 12.98459545 -3.78886018
X -2.75276384 14.60262944 -3.78886090
X -5.83044738 11.81377276 -8.91935482
X -18.01707325 17.22066342 -3.78886207
X -14.41365860 9.02492321 1.89442316
X -13.03727668 15.60262944 -3.78886135
X -11.66089476 3.78884911 -11.81377844
X -7.73256041 22.90394838 3.78884416
X -7.20682930 32.09968859 -1.89444152
X -13.03727668 23.18032998 -22.18035024
X -1.37638192 5.68327884 -6.13049771
X -21.62048790 16.04983650 -18.39149267
X -9.95959314 25.96918944 -10.81378834
X -10.81024395 4.06524296 -10.36656497
X -6.35617849 13.43180864 -4.68328757
X -16.64069133 20.56230166 -9.47214514
X -18.86772405 15.15541669 -1.89443396
X 0.85065081 17.22065963 -12.26099803
X -18.86772405 6.13049348 -3.78885712
X -13.03727668 11.81377844 3.78884911
X -14.41365860 29.75804422 -9.91936284
X -1.37638192 8.02492132 -2.34164437
X -1.37638192 21.73311912 -16.04985443
X -1.37638192 11.81377844 3.78884911
X -2.22703273 22.90394036 -14.15542776
X -11.66089476 7.57770623 -5.68328496
X -8.05748011 16.32623793 -0.00000729
X -3.60341465 24.79836586 -17.94428299
X -10.81024395 18.66787049 -18.39149384
X -12.18662587 9.19573453 -18.39148961
X -14.41365860 9.91934492 -10.36656758
X -15.79004052 14.15541245 -11.36656947
X -17.16642244 6.13049348 -3.78885712
X -15.26430941 7.30131472 -1.89443045
X -1.37638192 21.73312714 1.89441749
X -4.97979657 25.24558284 -10.36657442
X 2.22703273 12.98459545 -3.78886018
X -8.58321122 24.07476349 -8.02493311
X 0.00000000 19.83869741 -3.78886324
X -2.22703273 12.98459545 -3.78886018
X -16.64069133 26.69279559 -12.26100226
X -10.81024395 25.69279937 -3.78886585
X -10.81024395 17.22065729 -17.49706600
X -14.41365860 12.26098127 -20.28591817
X -12.18662587 20.56229977 -13.70821312
X -5.83044738 15.60263177 1.44720663
X -20.24410598 10.36655957 -8.02492699
X -21.62048790 11.36656380 1.44720852
X -9.95959314 21.28591016 -5.68329108
X -8.58321122 3.34163257 -18.39148700
X -2.75276384 13.70820205 -4.23607410
X -1.37638192 13.26098551 -10.81378266
X -21.62048790 23.62755074 -6.13050572
X -12.18662587 25.24558473 -6.13050644
X -13.56300779 7.30130904 -14.60263439
X -14.41365860 25.96918521 -20.28592430
X 0.00000000 16.04984028 -9.91935672
X -11.66089476 23.62755074 -6.13050572
X -9.95959314 17.49705348 -10.81378455
X -16.64069133 22.90394270 -8.91935978
X -13.03727668 15.60263177 1.44720663
X -13.03727668 30.20526309 1.89441370
X -10.81024395 22.45673140 -3.78886441
X -14.41365860 24.52197246 -18.39149646
X -18.01707325 1.17081746 -6.57770929
X -12.18662587 9.19574445 3.78885028
X -2.22703273 26.69279748 -8.02493428
X -7.20682930 18.39147664 -19.83870731
X -4.97979657 6.85409774 -9.47213902
X -8.58321122 17.94426768 -9.47214397
X -13.56300779 24.79837387 -0.00001107
X -17.49134213 14.15541289 -10.36656947
X -10.81024395 26.24558239 -11.36657487
X -6.35617849 19.56230590 -0.00000874
X -10.81024395 22.45672950 -8.02493239
X -19.39345517 9.19573643 -14.15542164
X -24.69817143 19.39148087 -10.36657181
X -20.24410598 15.60263177 1.44720663
X -7.20682930 27.41639796 -22.18035213
X -1.37638192 27.86361683 -10.36657559
X -18.01707325 18.66787238 -14.15542586
X -8.58321122 14.15541056 -15.60263745
X -10.81024395 14.87902562 2.89442055
X -15.79004052 15.60263177 1.44720663
X -2.75276384 17.49705537 -6.57771658
X -10.81024395 13.43180820 -5.68328757
X -18.01707325 24.79836820 -12.70821501
X -11.66089476 21.28590637 -14.15542704
X 0.85065081 7.30131283 -6.13049843
X -18.01707325 7.30130904 -14.60263439
X -11.66089476 17.49705537 -6.57771658
X -9.95959314 11.36656146 -3.78885946
X -9.43386203 9.19574022 -5.68328568
X -5.83044738 15.60262944 -3.78886135
X -13.88792749 12.98459545 -3.78886018
X -16.64069133 12.98459968 5.68327578
X -0.52573111 16.77345068 -1.89443468
X -18.01707325 19.56229977 -13.70821267
X -18.01707325 18.66787661 -4.68328991
X -6.35617849 15.77344878 -6.13050221
X -5.83044738 15.60262564 -12.26099730
X -9.95959314 16.04984642 3.78884722
X -20.24410598 21.73312146 -10.81378645
X -16.64069133 4.51245571 -12.26099236
X -6.35617849 10.19574022 -5.68328613
X -8.58321122 26.41640597 -4.23607977
X -3.60341465 28.58721920 -20.28592547
X -3.60341465 23.35115122 -20.28592312
X -15.26430941 13.43180674 -8.91935555
X -4.12914576 11.81377041 -14.15542280
X -13.88792749 15.32623413 -8.47214280
X -3.60341465 6.40688733 -2.34164365
X 3.07768354 10.36656146 -3.78885901
X -3.60341465 8.74852558 -8.02492627
X -7.73256041 18.22065774 -16.49706645
X -5.83044738 11.81377231 -9.91935483
X -1.37638192 20.28590637 -14.15542659
X -15.26430941 21.00951297 -14.60264051
X -14.93938971 12.98459545 -3.78886018
X -21.09475678 22.90394648 -0.44722382
X -21.09475678 15.32623603 -4.23607482
X -18.01707325 17.22065919 -13.26099803
X -4.97979657 9.19574067 -4.68328568
X -2.75276384 25.96919322 -2.34165238
X -13.56300779 13.43180630 -9.91935555
X -14.41365860 7.57770623 -5.68328496
X -8.05748011 7.30131283 -6.13049843
X -6.35617849 2.61802976 -9.47213713
X -9.43386203 15.32623180 -13.70821078
X -4.12914576 8.02491898 -7.57771235
X -7.20682930 19.83869785 -2.78886324
X -4.12914576 20.28591250 -0.44722265
X -5.83044738 16.49705493 -7.57771613
X -13.56300779 11.09016806 -4.23607293
X -2.75276384 19.83869975 1.44720474
X -9.43386203 4.51245571 -12.26099236
X -17.49134213 12.70820015 -8.47214163
X -23.84752062 12.98459165 -12.26099613
X 2.22703273 22.90394225 -9.91935978
X -6.35617849 4.95966656 -18.39148773
X -4.97979657 9.19573833 -9.91935366
X -13.03727668 8.02491519 -16.04984831
X -6.35617849 13.43181054 -0.44721959
X -19.39345517 20.56230211 -8.47214514
X -3.60341465 21.00951252 -15.60264051
X -4.97979657 16.77344644 -11.36657064
X -14.41365860 17.49705303 -11.81378456
X -13.03727668 22.62755264 -1.89443730
X -4.97979657 16.77344688 -10.36657064
X -22.47113870 22.45672950 -8.02493239
X -15.26430941 22.45672950 -8.02493239
X -10.28451284 10.36655957 -8.02492699
X -14.41365860 25.96919088 -7.57772036
X 0.85065081 21.00951297 -14.60264051
X -18.01707325 18.66788041 3.78884605
X -3.60341465 24.79837198 -4.23607905
X 4.45406546 23.62754696 -14.60264168
X 0.00000000 22.18033376 -13.70821384
X -10.81024395 13.43180630 -9.91935555
X -3.60341465 8.74852178 -16.49706222
X -15.79004052 13.26098551 -10.81378266
X -7.73256041 14.43180630 -9.91935599
X -3.60341465 11.09016995 -0.00000495
X -7.20682930 16.04984453 -0.44722076
X -8.58321122 23.18033376 -13.70821429
X -11.66089476 8.47213596 -0.00000378
X -13.03727668 9.47213407 -4.23607221
X -19.39345517 14.43181243 3.78884794
X -15.79004052 16.49705493 -7.57771613
X -26.07455335 13.70820015 -8.47214208
X -7.20682930 3.78884532 -20.28591440
X -12.18662587 12.98459400 -7.02492816
X -13.03727668 -0.44721887 -11.81377655
X -20.24410598 14.15541289 -10.36656947
X -15.26430941 15.77345067 -1.89443423
X -12.18662587 26.69279937 -3.78886630
X -26.07455335 13.70819825 -12.70821005
X -7.20682930 16.04984218 -5.68328874
X -15.26430941 17.22066766 5.68327388
X -13.03727668 25.52197624 -9.91936095
X -15.26430941 21.00951675 -6.13050455
X -6.35617849 27.14001635 3.78884226
X -14.41365860 28.31083336 -3.78886702
X -18.86772405 16.04983839 -14.15542469
X -15.79004052 4.23606609 -4.23606987
X -7.20682930 2.34163870 -4.68328262
X -7.20682930 12.26098316 -16.04985019
X -9.43386203 20.56230166 -9.47214514
X 4.45406546 13.70820394 -0.00000612
X -6.35617849 15.77344688 -10.36657019
X -7.20682930 23.62754273 -24.07477763
X -4.97979657 29.03443618 -12.70821690
X -18.01707325 11.09016806 -4.23607293
X -15.26430941 20.11508324 -20.28592168
X -20.24410598 25.52197624 -9.91936095
X -16.64069133 12.98459355 -8.02492816
X -6.35617849 23.35115923 -2.34165121
X -8.05748011 4.95967035 -9.91935177
X -14.41365860 19.83868750 -25.96920313
X -7.20682930 -0.00000378 -8.47213596
X -15.79004052 21.73312290 -7.57771847
X -14.41365860 -0.00000378 -8.47213596
X -18.01707325 22.45672572 -16.49706834
X -10.81024395 12.53738504 3.34163519
X -28.30158608 20.56230211 -8.47214514
X 4.45406546 6.13048970 -12.26099308
X -18.01707325 2.61803399 -0.00000117
X -18.01707325 12.53738314 -0.89443279
X 0.00000000 25.96919088 -7.57772036
X -3.60341465 6.40688922 1.89442433
X -18.86772405 25.96919511 1.89441560
X -24.69817143 21.73312335 -6.57771847
X -1.37638192 14.15541100 -14.60263744
X -24.69817143 8.02491898 -7.57771235
X -6.35617849 9.64295531 -2.34164509
X -7.20682930 25.96919511 1.89441560
X 0.85065081 13.43180251 -18.39149150
X -18.86772405 19.83869551 -8.02493122
X -10.28451284 19.39148087 -10.36657181
X -18.86772405 17.49705114 -16.04985253
X 2.22703273 16.77344878 -6.13050266
X -21.09475678 12.98459165 -12.26099613
X -15.79004052 11.81376852 -18.39149078
X -4.97979657 14.43180251 -18.39149195
X -5.83044738 11.81377844 3.78884911
X -7.20682930 1.44721275 -1.89442784
X -26.07455335 17.49705537 -6.57771658
X -15.26430941 14.87901949 -10.81378338
X -10.28451284 14.15541479 -6.13050149
X -14.41365860 7.57770244 -14.15542092
X -16.64069133 20.56229788 -17.94428109
X -8.05748011 21.00951865 -1.89443657
X -7.20682930 2.34164248 3.78885334
X 4.45406546 16.04984028 -9.91935672
X -0.52573111 18.22066342 -3.78886252
X -16.64069133 8.30131472 -1.89443090
X -13.03727668 16.49705493 -7.57771613
X -1.37638192 24.07476160 -12.26100109
X -7.20682930 17.49705727 -2.34164860
X -10.81024395 20.11508324 -20.28592168
X -10.81024395 19.56230167 -9.47214469
X -21.09475678 11.53737891 -10.36656830
X -4.12914576 17.04983650 -18.39149312
X -13.03727668 20.28590637 -14.15542659
X -9.43386203 18.22066153 -8.02493050
X -13.88792749 18.22065963 -12.26099847
X -15.79004052 20.28590637 -14.15542659
X -7.20682930 6.13049204 -7.02492510
X -14.41365860 6.13049771 5.68327884
X -16.64069133 25.24558473 -6.13050644
X -10.81024395 14.87901104 -29.75805529
X -13.03727668 30.20526120 -2.34165427
X -15.26430941 8.74851756 -25.96919817
X -12.18662587 26.69279748 -8.02493428
X -13.88792749 6.85409395 -17.94427498
X -6.35617849 27.14001068 -8.91936167
X -3.60341465 12.53738314 -0.89443279
X -7.20682930 14.60262564 -12.26099686
X -18.01707325 23.35115500 -11.81378717
X -9.43386203 19.11508892 -7.57771730
X -10.81024395 6.40688354 -10.81377960
X -2.75276384 17.49704925 -20.28592051
X -11.66089476 14.60262375 -16.49706483
X -8.58321122 15.60262798 -7.02492933
X -4.97979657 12.98459779 1.44720780
X -0.52573111 20.56230590 -0.00000918
X -9.95959314 21.28590448 -18.39149501
X -14.41365860 11.36656190 -2.78885946
X -21.62048790 13.70819825 -12.70821005
X 0.85065081 11.09016426 -12.70820888
X -26.07455335 16.04984028 -9.91935672
X -18.86772405 8.47213028 -12.70820772
X -17.49134213 10.36655767 -12.26099497
X -13.03727668 13.26098551 -10.81378266
X -16.64069133 0.72360426 -5.68328190
X -6.35617849 24.79837198 -4.23607905
X -3.60341465 17.22066342 -3.78886207
X -11.66089476 11.36655767 -12.26099541
X -3.60341465 14.87902094 -7.57771541
X -16.64069133 25.24558095 -14.60264240
X -2.75276384 9.91934258 -15.60263556
X -18.01707325 27.14001023 -9.91936167
X -12.18662587 15.32623793 -0.00000684
X -8.58321122 5.68328073 -1.89442973
X -12.18662587 14.43180864 -4.68328802
X -4.12914576 11.81377421 -5.68328685
X -8.58321122 7.13048969 -12.26099352
X -9.95959314 6.13048970 -12.26099308
X -8.05748011 22.45673140 -3.78886441
X -8.58321122 25.52197624 -9.91936095
X -9.43386203 14.43180630 -9.91935599
X -23.84752062 3.06524296 -10.36656452
X -9.43386203 4.51245381 -16.49706033
X -5.83044738 4.23606231 -12.70820583
X -15.79004052 5.68328073 -1.89442973
X -3.60341465 4.95967647 3.78885217
X -22.47113870 21.00951486 -10.36657253
X -24.69817143 21.73312714 1.89441749
X -28.30158608 9.19573453 -18.39148961
X -13.03727668 19.39147853 -15.60263978
X -9.43386203 12.98459400 -7.02492816
X -14.41365860 2.34163681 -8.91935060
X -4.97979657 21.45672761 -12.26099992
X -13.88792749 20.56230022 -12.70821312
X -12.18662587 12.98458976 -16.49706411
X -14.41365860 9.91934726 -5.13049959
X 0.85065081 14.87901526 -20.28591934
X -23.84752062 16.77344688 -10.36657064
X -14.41365860 20.73312101 -11.81378600
X -8.58321122 13.26098506 -11.81378266
X -13.03727668 14.15541479 -6.13050149
X -13.03727668 10.91934681 -6.13050004
X -16.64069133 15.32623180 -13.70821078
X -4.97979657 19.11508702 -11.81378528
X -10.81024395 23.35115734 -6.57771919
X -10.81024395 19.56230022 -12.70821267
X -15.26430941 13.43180251 -18.39149150
X -2.75276384 13.70819402 -22.18034601
X -5.83044738 5.68327695 -10.36656569
X -14.41365860 18.39147664 -19.83870731
X -3.60341465 21.00951063 -19.83870848
X -13.03727668 17.94426768 -9.47214397
X -0.52573111 14.43180820 -5.68328802
X 3.07768354 11.81377421 -5.68328685
X -1.37638192 4.23606798 -0.00000189
X -7.73256041 11.53737891 -10.36656830
X -16.64069133 6.85409395 -17.94427498
X -7.20682930 25.96918944 -10.81378834
X -11.33597506 15.60262564 -12.26099730
X -18.01707325 8.74852981 1.44720969
X 0.85065081 8.74852558 -8.02492627
X -18.86772405 9.91934258 -15.60263556
X -14.41365860 13.70819970 -9.47214208
X -13.56300779 17.22065774 -16.49706600
X -12.18662587 22.90394225 -9.91935978
X -2.75276384 23.62754696 -14.60264168
X -13.03727668 21.73312146 -10.81378645
X -15.79004052 15.60262564 -12.26099730
X -9.43386203 17.66787617 -5.68328946
X -2.75276384 12.26098930 -2.34164626
X -15.26430941 19.56230211 -8.47214469
X -9.43386203 18.22065963 -12.26099847
X -13.88792749 14.43180820 -5.68328802
X -10.28451284 17.94426623 -12.70821195
X -9.43386203 5.40688922 1.89442478
X -1.37638192 14.15541669 -1.89443351
X -2.22703273 9.19573453 -18.39148961
X -2.75276384 19.83869785 -2.78886324
X -10.81024395 12.53737278 -24.07477268
X -17.49134213 11.81376852 -18.39149078
X -18.01707325 11.09016426 -12.70820888
X -14.41365860 9.02492132 -2.34164482
X -6.68109819 12.98459165 -12.26099613
X -15.26430941 24.79836820 -12.70821501
X -15.79004052 5.68327695 -10.36656569
X -14.41365860 32.09968292 -14.60264546
X -11.33597506 17.94426623 -12.70821195
X -8.05748011 7.30130904 -14.60263439
X -14.41365860 18.39148087 -10.36657136
X -1.37638192 25.52197813 -5.68329297
X -5.83044738 27.86361494 -14.60264357
X -22.47113870 7.30130904 -14.60263439
X -12.18662587 20.56229599 -22.18034907
X 6.68109819 16.77344878 -6.13050266
X -2.22703273 19.11508324 -20.28592123
X -10.81024395 14.87902518 1.89442055
X -7.20682930 22.18033610 -8.47214586
X -11.33597506 10.36655767 -12.26099497
X -7.20682930 3.78884722 -16.04984642
X -8.58321122 17.04983839 -14.15542514
X -22.47113870 24.79837009 -8.47214703
X 3.07768354 10.36655577 -16.49706294
X -18.86772405 25.96919133 -6.57772036
X -4.97979657 0.72360237 -9.91934988
X -8.58321122 3.34163636 -9.91935105
X -20.24410598 21.73312101 -11.81378645
X -10.81024395 -3.51246939 -18.39148393
X -9.43386203 19.11508747 -10.81378528
X -6.35617849 20.11508513 -16.04985370
X -9.43386203 12.09016427 -12.70820933
X -10.81024395 25.69279748 -8.02493383
X -10.28451284 10.36655577 -16.49706294
X -6.35617849 13.43180630 -9.91935555
X -8.05748011 24.79837198 -4.23607905
X -7.20682930 23.62755074 -6.13050572
X -5.83044738 11.81377465 -4.68328685
X -16.64069133 17.66787617 -5.68328946
X -13.03727668 11.81377276 -8.91935482
X -3.60341465 21.00951486 -10.36657253
X -2.75276384 16.04983650 -18.39149267
X -8.58321122 19.39147853 -15.60263978
X -10.81024395 8.74852178 -16.49706222
X -7.20682930 3.78885100 -7.57771046
X -8.05748011 18.66787427 -9.91935789
X -18.86772405 9.91934871 -1.89443162
X -0.52573111 12.98459355 -8.02492816
X -8.58321122 20.28590448 -18.39149456
X -12.18662587 12.98459121 -13.26099614
X -8.58321122 1.89442550 -3.78885523
X -8.58321122 27.86362061 -1.89443963
X -14.41365860 13.70820015 -8.47214208
X -6.35617849 18.66787472 -8.91935789
X -11.66089476 19.83869362 -12.26099920
X -16.64069133 18.22065963 -12.26099847
X -4.12914576 20.28590871 -8.91935861
X -7.73256041 15.32623413 -8.47214280
X -8.58321122 21.73312335 -6.57771847
X -6.35617849 7.30130904 -14.60263439
X -18.86772405 14.60262375 -16.49706483
X -4.97979657 17.66787049 -18.39149339
X -14.41365860 25.96919511 1.89441560
X 0.85065081 14.87902329 -2.34164743
X -7.20682930 6.13049582 1.44721086
X -2.75276384 17.49705493 -7.57771658
X -0.52573111 15.32623603 -4.23607482
X -16.64069133 10.64295341 -6.57771351
X -10.28451284 21.73312714 1.89441749
X -18.01707325 17.22065351 -25.96920196
X -14.41365860 32.09968481 -10.36657748
X -8.05748011 7.30131094 -10.36656641
X -8.05748011 24.79837387 -0.00001107
X -21.09475678 18.22066342 -3.78886252
X -13.03727668 10.36656380 1.44720897
X -3.60341465 22.45672572 -16.49706834
X -20.24410598 17.94426812 -8.47214397
X -5.83044738 13.26098740 -6.57771469
X -15.26430941 12.53738081 -6.13050077
X -19.39345517 10.64295152 -10.81378149
X -7.73256041 6.85409774 -9.47213902
X 0.00000000 29.75804044 -18.39149880
X -8.58321122 17.04984218 -5.68328919
X -4.45406546 12.26098316 -16.04985019
X -9.43386203 15.32623224 -12.70821077
X -4.45406546 6.13049159 -8.02492510
X -7.73256041 19.11508936 -6.57771730
X -14.41365860 5.23606798 -0.00000234
X -7.20682930 19.83869596 -7.02493122
X -10.81024395 8.74852324 -13.26099425
X -16.64069133 22.90394414 -5.68329180
X -14.41365860 19.83869128 -17.49706717
X -14.41365860 19.83870165 5.68327271
X -18.01707325 12.53738081 -6.13050077
X -2.75276384 9.91934302 -14.60263555
X -2.22703273 12.98458976 -16.49706411
X -6.68109819 9.19574022 -5.68328568
X -11.33597506 11.81377041 -14.15542280
X -16.64069133 19.11509126 -2.34164932
X -10.81024395 27.14000645 -18.39149763
X -10.81024395 23.35115311 -16.04985515
X -14.93938971 12.98459355 -8.02492816
X 2.22703273 20.56230022 -12.70821312
X -9.43386203 12.98458742 -21.73313209
X -15.26430941 10.19573833 -9.91935411
X -10.81024395 22.45672527 -17.49706834
X -15.79004052 13.26099119 1.89442127
X -9.43386203 25.24558662 -1.89443846
X -7.20682930 28.31082958 -12.26100298
X -4.12914576 9.47213173 -9.47214019
X -14.41365860 3.78884956 -10.81377844
X -15.26430941 8.74852368 -12.26099425
X -8.58321122 18.83869173 -16.49706673
X 0.00000000 11.36656001 -7.02492743
X 3.07768354 8.02491898 -7.57771235
X -8.58321122 7.13049348 -3.78885757
X -8.05748011 14.87901715 -16.04985136
X -20.24410598 17.94427002 -4.23607599
X -7.20682930 19.83869173 -16.49706717
X 2.22703273 16.77344499 -14.60263861
X -2.75276384 13.70819591 -17.94427803
X -15.79004052 19.39148466 -1.89443585
X -10.81024395 17.22065540 -21.73313398
X -15.26430941 16.32622801 -22.18034718
X -17.49134213 17.04983650 -18.39149312
X -22.47113870 14.87901715 -16.04985136
X -9.95959314 19.83869596 -7.02493122
X -21.62048790 18.39147853 -15.60263934
X -4.45406546 16.04983650 -18.39149267
X -14.41365860 9.91934916 -0.89443162
X -17.49134213 19.39148277 -6.13050383
X -13.03727668 3.34163636 -9.91935105
X -5.83044738 27.86361872 -6.13050761
X -4.97979657 12.98459121 -13.26099614
X -15.26430941 12.53737467 -19.83870470
X -0.52573111 18.22066153 -8.02493050
X -2.75276384 12.26098740 -6.57771424
X -10.28451284 8.02491898 -7.57771235
X -15.26430941 4.95967035 -9.91935177
X -11.66089476 22.18033421 -12.70821384
X -7.20682930 25.96919088 -7.57772036
X -9.43386203 6.85409629 -12.70820699
X 0.00000000 17.49705348 -10.81378455
X -13.03727668 21.73312714 1.89441749
X -9.95959314 17.49705303 -11.81378456
X -2.75276384 3.78884532 -20.28591440
X -18.01707325 14.87901526 -20.28591934
X -10.81024395 28.58721920 -20.28592547
X -5.83044738 11.81376852 -18.39149078
X 6.68109819 12.98459165 -12.26099613
X -6.68109819 9.19573833 -9.91935366
X -15.79004052 11.81377421 -5.68328685
X -7.73256041 16.77344688 -10.36657064
X -4.97979657 21.45672950 -8.02493194
X -18.01707325 8.74852558 -8.02492627
X 0.00000000 7.57770668 -4.68328496
X -13.56300779 18.66787427 -9.91935789
X -6.35617849 11.09016003 -22.18034484
X -16.64069133 17.66787428 -9.91935744
X -4.97979657 16.77345068 -1.89443468
X -3.60341465 19.56229599 -22.18034862
X -14.93938971 12.98458976 -16.49706411
X -13.03727668 21.73312290 -7.57771847
X -17.49134213 15.60262375 -16.49706528
X -3.60341465 16.32623414 -8.47214325
X -21.62048790 7.57770668 -4.68328496
X -16.64069133 10.64294918 -16.04984947
X 0.00000000 18.39148043 -11.36657136
X -9.43386203 3.06524107 -14.60263250
X -4.97979657 26.69279559 -12.26100226
X -11.66089476 19.83869785 -2.78886324
X -10.81024395 23.35115689 -7.57771919
X -6.35617849 10.19573643 -14.15542208
X -8.58321122 15.60262944 -3.78886135
X -15.26430941 6.40688499 -7.57771163
X -11.66089476 16.04984642 3.78884722
X 0.00000000 16.04984218 -5.68328874
X -3.60341465 4.95966846 -14.15541975
X -18.01707325 17.22065729 -17.49706600
X -15.26430941 14.87902094 -7.57771541
X -11.66089476 8.47213028 -12.70820772
X -9.43386203 14.43181053 -0.44722004
X -12.18662587 15.32623603 -4.23607482
X -13.03727668 19.39147664 -19.83870776
X -22.47113870 17.22066342 -3.78886207
X -15.79004052 17.94426623 -12.70821195
X -7.20682930 24.52197624 -9.91936050
X -18.01707325 2.61803021 -8.47213713
X -21.62048790 16.04983839 -14.15542469
X -23.84752062 16.77344878 -6.13050266
X -5.83044738 14.15540677 -24.07477340
X -15.26430941 14.87901904 -11.81378338
X -10.81024395 30.92886168 -16.49707213
X -15.26430941 8.74852178 -16.49706222
X -24.69817143 19.39148466 -1.89443585
X -15.26430941 8.74852747 -3.78885829
X -3.60341465 2.61803021 -8.47213713
X -9.43386203 8.30131283 -6.13049888
X -12.18662587 14.43180251 -18.39149195
X -18.01707325 22.45672950 -8.02493239
X -15.79004052 14.15541100 -14.60263744
X -14.41365860 16.04984453 -0.44722076
X -3.60341465 17.22065351 -25.96920196
X -4.12914576 16.49705537 -6.57771613
X -8.58321122 17.94427046 -3.23607599
X -11.66089476 17.49705303 -11.81378456
X -14.93938971 9.19573833 -9.91935366
X -14.41365860 16.04983650 -18.39149267
X -21.62048790 16.04984028 -9.91935672
X -7.20682930 9.91934068 -19.83870353
X -26.07455335 19.83869362 -12.26099920
X -3.60341465 14.87902518 1.89442055
X -4.12914576 14.15541100 -14.60263744
X -18.86772405 16.04984642 3.78884722
X 0.00000000 6.13049159 -8.02492510
X 6.68109819 16.77344688 -10.36657064
X -20.24410598 15.60262944 -3.78886135
X -14.41365860 12.26098930 -2.34164626
X -4.12914576 10.36655957 -8.02492699
X -8.58321122 14.15541100 -14.60263744
X -18.01707325 24.79837198 -4.23607905
X -4.97979657 15.32622801 -22.18034673
X -20.24410598 21.73312290 -7.57771847
X -18.86772405 13.70819402 -22.18034601
X -9.95959314 18.39148466 -1.89443540
X -21.62048790 3.78885145 -6.57771046
X -13.88792749 22.90394459 -4.68329180
X 2.22703273 14.43181053 -0.44722004
X -4.97979657 6.85409395 -17.94427498
X -7.73256041 20.56230590 -0.00000918
X -1.37638192 19.39147898 -14.60263978
X -14.41365860 27.41640174 -13.70821618
X -10.81024395 7.30130904 -14.60263439
X -15.26430941 27.14001257 -4.68329369
X -26.07455335 17.49705727 -2.34164860
X -14.41365860 25.96918944 -10.81378834
X -15.26430941 18.66788041 3.78884605
X -14.41365860 -2.34164626 -12.26098930
X -4.97979657 20.56230590 -0.00000918
X -7.73256041 20.56230400 -4.23607716
X -7.20682930 21.28591016 -5.68329108
X -28.30158608 12.98459545 -3.78886018
X -1.37638192 14.15541289 -10.36656947
X -0.52573111 10.64295297 -7.57771352
X -5.83044738 9.47213596 -0.00000423
X -8.05748011 24.79836820 -12.70821501
X -10.81024395 10.19574022 -5.68328613
X -17.49134213 8.02491709 -11.81378033
X 0.85065081 11.09016192 -17.94427686
X -12.18662587 10.64295341 -6.57771351
X -15.79004052 10.36655767 -12.26099497
X 0.85065081 13.43180440 -14.15542352
X -7.20682930 23.62755263 -1.89443774
X -8.58321122 4.23606420 -8.47213785
X -18.01707325 6.40688354 -10.81377960
X -9.95959314 12.26098550 -10.81378221
X -13.56300779 8.74852747 -3.78885829
X -13.03727668 13.26099119 1.89442127
X -18.86772405 21.28590637 -14.15542704
X -9.43386203 6.85410197 -0.00000306
X 0.85065081 17.22066342 -3.78886207
X -9.95959314 22.18033421 -12.70821384
X -17.16642244 23.62755074 -6.13050572
X -1.37638192 17.94426578 -13.70821195
X -20.24410598 4.23606798 -0.00000189
X -3.60341465 2.61803399 -0.00000117
X 0.85065081 7.30131094 -10.36656641
X -13.03727668 27.86361872 -6.13050761
X -10.28451284 8.02491519 -16.04984831
X -2.22703273 10.64295720 1.89442244
X -16.64069133 5.40688544 -6.57771118
X -14.93938971 16.77345068 -1.89443468
X -4.97979657 14.43181243 3.78884794
X -9.95959314 3.78884532 -20.28591440
X -18.01707325 27.14001212 -5.68329369
X -18.01707325 24.79836397 -22.18035096
X -7.20682930 16.04983795 -15.15542470
X -12.18662587 20.56230400 -4.23607716
X -19.39345517 12.98458976 -16.49706411
X -28.30158608 20.56230590 -0.00000918
X -14.93938971 20.56230211 -8.47214514
X -10.81024395 6.40688733 -2.34164365
X -15.79004052 17.94426768 -9.47214397
X -1.37638192 1.89442361 -8.02492321
X -9.43386203 26.69279370 -16.49707024
X -17.16642244 17.49705537 -6.57771658
X -10.81024395 9.64295531 -2.34164509
X -13.03727668 15.60262375 -16.49706528
X -9.43386203 0.72360426 -5.68328190
X 3.07768354 11.81377041 -14.15542280
X -3.60341465 18.66787427 -9.91935789
X -13.03727668 8.02491753 -10.81378032
X -7.73256041 12.98459355 -8.02492816
X -8.58321122 6.57770668 -4.68328451
X -14.41365860 22.18033610 -8.47214586
X -21.62048790 -0.00000567 -12.70820394
X -14.41365860 22.18032998 -22.18034979
X -10.81024395 11.09016003 -22.18034484
X -21.62048790 7.57770857 -0.44721698
X -12.18662587 0.72360426 -5.68328190
X -21.09475678 16.77344688 -10.36657064
X -13.03727668 14.15541903 3.34163447
X -1.37638192 5.68328073 -1.89442973
X -18.01707325 24.79837387 -0.00001107
X -4.12914576 10.36655767 -12.26099497
X -15.26430941 17.22066342 -3.78886207
X -4.97979657 6.85410197 -0.00000306
X -4.12914576 9.47212604 -22.18034412
X -12.18662587 24.35115500 -11.81378762
X -21.09475678 14.43180630 -9.91935599
X -18.86772405 9.91934492 -10.36656758
X -8.05748011 11.09016003 -22.18034484
X -16.64069133 12.98459589 -2.78886018
X -7.73256041 14.43180440 -14.15542397
X -21.62048790 22.18033187 -17.94428182
X -8.58321122 9.47213028 -12.70820816
X -4.45406546 23.62755263 -1.89443774
X -9.43386203 14.43180820 -5.68328802
X -8.58321122 30.20525742 -10.81379023
X -13.03727668 7.13048780 -16.49706150
X -0.52573111 14.43180440 -14.15542397
X -2.75276384 18.39147898 -14.60263934
X -1.37638192 15.60263177 1.44720663
X -21.62048790 29.75804611 -5.68329486
X -21.09475678 19.11508936 -6.57771730
X -22.47113870 12.53737701 -14.60263672
X -7.73256041 11.53738270 -1.89443234
X -3.60341465 11.09016426 -12.70820888
X -13.03727668 30.20525742 -10.81379023
X -16.64069133 6.85409629 -12.70820699
X -7.20682930 29.75804233 -14.15543082
X -13.56300779 14.87902329 -2.34164743
X -5.83044738 16.49705114 -16.04985208
X -2.75276384 21.28590826 -9.91935906
X -7.20682930 29.75804044 -18.39149880
X -24.69817143 14.15541100 -14.60263744
X 0.85065081 14.87901949 -10.81378338
X -1.37638192 9.47213028 -12.70820816
X -21.62048790 18.39147664 -19.83870731
X -5.83044738 15.60262754 -8.02492933
X -10.81024395 -3.51246372 -5.68328001
X -6.68109819 20.56230400 -4.23607716
X -5.83044738 17.94426578 -13.70821195
X -14.41365860 5.23606420 -8.47213830
X -14.41365860 16.04984218 -5.68328874
X -11.66089476 14.60262944 -3.78886090
X -26.07455335 12.26098127 -20.28591817
X -18.01707325 21.00951441 -11.36657253
X -7.20682930 7.57770623 -5.68328496
X -18.01707325 14.87901949 -10.81378338
X -0.00000000 -0.00000189 -4.23606798
X -16.64069133 22.90394225 -9.91935978
X -17.49134213 8.02491898 -7.57771235
X -8.58321122 8.02491753 -10.81378032
X -17.49134213 9.47213173 -9.47214019
X -12.18662587 29.03443807 -8.47214892
X 0.00000000 16.04983650 -18.39149267
X 2.22703273 12.98459165 -12.26099613
X -12.18662587 20.56230211 -8.47214514
X -6.35617849 6.40688120 -16.04984759
X -8.58321122 4.23606609 -4.23606987
X -4.97979657 19.11509126 -2.34164932
X -12.18662587 20.56230590 -0.00000918
X -15.26430941 10.19573643 -14.15542208
X -6.35617849 13.43181243 3.78884839
X -18.01707325 21.00951297 -14.60264051
X -13.03727668 6.57770668 -4.68328451
X -10.81024395 10.19573833 -9.91935411
X -15.79004052 8.02492321 1.89442361
X -16.64069133 15.32623413 -8.47214280
X -4.97979657 12.98458976 -16.49706411
X -2.22703273 16.77344878 -6.13050266
X -18.01707325 6.40688733 -2.34164365
X -7.20682930 24.52197246 -18.39149646
X -9.43386203 5.40688733 -2.34164320
X -0.52573111 6.85409205 -22.18034295
X -13.03727668 15.60262520 -13.26099731
X -7.20682930 12.26098696 -7.57771424
X -4.97979657 8.30131093 -10.36656685
X -24.69817143 8.02491709 -11.81378033
X -16.64069133 12.98458976 -16.49706411
X -16.64069133 16.77344644 -11.36657064
X -6.35617849 18.66787617 -5.68328991
X 0.00000000 29.75804233 -14.15543082
X -10.81024395 11.09016995 -0.00000495
X -7.20682930 18.39148276 -6.13050338
X -18.01707325 22.45673140 -3.78886441
X -12.18662587 8.30130904 -14.60263483
X -11.66089476 12.26099119 1.89442172
X 4.45406546 17.49705727 -2.34164860
X -4.97979657 16.77345112 -0.89443468
X -14.93938971 9.19573643 -14.15542164
X -17.16642244 13.70820394 -0.00000612
X -10.81024395 24.79837198 -4.23607905
X -12.18662587 19.11508324 -20.28592123
X -17.49134213 21.73312146 -10.81378645
X -10.81024395 33.27050794 -4.23608283
X 4.45406546 23.62755074 -6.13050572
X -6.35617849 16.32623603 -4.23607527
X -13.03727668 14.15541713 -0.89443351
X -18.86772405 18.39148276 -6.13050338
X -16.64069133 21.45672950 -8.02493194
X -9.43386203 19.11508936 -6.57771730
X -6.35617849 6.40688499 -7.57771163
X -11.66089476 13.70819970 -9.47214208
X -21.62048790 18.39147475 -24.07477529
X 3.07768354 19.39148277 -6.13050383
X -18.01707325 19.56229599 -22.18034862
X -14.41365860 -2.34164815 -16.49705727
X -18.01707325 17.22065774 -16.49706600
X -4.12914576 17.94426623 -12.70821195
X -2.75276384 19.83869173 -16.49706717
X -28.30158608 12.98459355 -8.02492816
X -22.47113870 4.95967224 -5.68328379
X -1.37638192 24.07475971 -16.49706907
X -3.60341465 6.40688354 -10.81377960
X -5.83044738 17.94426389 -17.94427992
X -18.01707325 16.32623603 -4.23607527
X -5.83044738 8.02491329 -20.28591628
X -7.73256041 14.43180820 -5.68328802
X -13.03727668 5.68327884 -6.13049771
X -7.73256041 15.32623603 -4.23607482
X -8.58321122 8.02491519 -16.04984831
X -13.03727668 20.28591016 -5.68329063
X -1.37638192 21.73312146 -10.81378645
X -8.58321122 10.36655577 -16.49706294
X -13.56300779 14.87901526 -20.28591934
X 0.85065081 14.87902518 1.89442055
X -2.75276384 7.57770244 -14.15542092
X -15.79004052 21.73312146 -10.81378645
X -2.75276384 18.39148466 -1.89443540
X -7.20682930 7.57770244 -14.15542092
X -4.97979657 15.32622990 -17.94427875
X -8.05748011 18.66787238 -14.15542586
X -1.37638192 8.02491519 -16.04984831
X -15.26430941 12.53737891 -10.36656874
X -8.58321122 24.07475971 -16.49706907
X -13.03727668 21.73312101 -11.81378645
X -10.81024395 13.98459545 -3.78886063
X -10.28451284 17.94426812 -8.47214397
X -8.58321122 24.07476538 -3.78886513
X 2.22703273 22.90393847 -18.39149573
X -13.03727668 14.15542092 7.57770244
X -7.20682930 16.04984073 -8.91935672
X -11.33597506 19.39148466 -1.89443585
X -18.01707325 6.40688922 1.89442433
X -1.37638192 5.68327695 -10.36656569
X -15.79004052 19.39148277 -6.13050383
X -17.49134213 21.73312524 -2.34165049
X -10.28451284 11.81377421 -5.68328685
X -23.84752062 15.32622990 -17.94427875
X -9.95959314 7.57770055 -18.39148889
X -10.28451284 19.39147898 -14.60263978
X -8.58321122 14.15541479 -6.13050149
X -9.95959314 18.39148276 -6.13050338
X -16.64069133 20.56230590 -0.00000918
X -4.97979657 11.53738081 -6.13050032
X -13.03727668 12.70820204 -4.23607365
X -13.03727668 8.02491943 -6.57771235
X -4.45406546 12.26098127 -20.28591817
X -11.33597506 8.02491709 -11.81378033
X -10.81024395 21.90394036 -14.15542731
X -18.01707325 4.95966846 -14.15541975
X -11.66089476 8.47213218 -8.47213974
X -18.01707325 14.87901904 -11.81378338
X -17.49134213 9.47212794 -17.94427614
X -16.64069133 16.77344265 -19.83870659
X 0.85065081 16.32623414 -8.47214325
X -6.35617849 8.74851756 -25.96919817
X -4.45406546 17.49705537 -6.57771658
X -20.24410598 9.47213407 -4.23607221
X -5.83044738 10.36655957 -8.02492699
X -16.64069133 11.53738270 -1.89443234
X -21.09475678 19.11508747 -10.81378528
X -4.12914576 20.28591440 3.78884532
X -17.49134213 21.73312714 1.89441749
X -3.60341465 7.30131283 -6.13049843
X 0.85065081 18.66787851 -0.44722193
X -26.07455335 19.83869741 -3.78886324
X -23.84752062 10.64295720 1.89442244
X -9.95959314 13.70819402 -22.18034601
X -18.01707325 11.09016003 -22.18034484
X -10.81024395 23.35115122 -20.28592312
X -12.18662587 10.64295152 -10.81378149
X -15.79004052 20.28590448 -18.39149456
X -23.84752062 19.11508513 -16.04985325
X -3.60341465 21.00951865 -1.89443657
X -2.75276384 14.60262754 -8.02492888
X -14.41365860 9.91933879 -24.07477151
X -26.07455335 17.49705917 1.89441938
X -4.45406546 6.13048780 -16.49706106
X -12.18662587 20.56229788 -17.94428109
X -13.88792749 10.64294918 -16.04984947
X -2.22703273 22.90394225 -9.91935978
X -14.41365860 19.83869596 -7.02493122
X -9.95959314 22.18033610 -8.47214586
X -18.86772405 25.96919322 -2.34165238
X -11.33597506 15.60262754 -8.02492933
X -7.20682930 -2.34164437 -8.02492132
X -6.35617849 12.53738270 -1.89443279
X -3.60341465 12.53738693 7.57770317
X -4.97979657 24.35115689 -7.57771964
X -13.56300779 22.45672572 -16.49706834
X -5.83044738 8.02491943 -6.57771235
X -3.60341465 18.66787238 -14.15542586
X -13.03727668 16.49705304 -11.81378411
X -12.18662587 11.53738081 -6.13050032
X -0.52573111 11.53738081 -6.13050032
X -4.97979657 8.30130904 -14.60263483
X -8.58321122 14.15541245 -11.36656947
X -9.95959314 19.83869785 -2.78886324
X -4.97979657 12.98459968 5.68327578
X -15.26430941 23.35115923 -2.34165121
X -15.26430941 19.56230022 -12.70821267
X -5.83044738 10.36656146 -3.78885901
X -5.83044738 16.49705304 -11.81378411
X -18.86772405 12.26099119 1.89442172
X -8.58321122 11.81377465 -4.68328685
X -2.22703273 20.56230400 -4.23607716
X -9.95959314 15.15541100 -14.60263789
X -3.60341465 24.79836964 -9.47214703
X -2.22703273 15.32623369 -9.47214280
X -8.05748011 18.66787851 -0.44722193
X -4.97979657 17.66787238 -14.15542542
X 0.00000000 13.70820015 -8.47214208
X -18.86772405 3.78885100 -7.57771046
X -6.35617849 17.22066152 -8.02493005
X 2.22703273 15.32622801 -22.18034673
X -10.81024395 6.40688922 1.89442433
X -6.35617849 8.74852558 -8.02492627
X -4.12914576 16.49705917 1.89441983
X -13.03727668 5.68327271 -19.83870165
X -15.79004052 27.86361494 -14.60264357
X -9.95959314 13.70820205 -4.23607410
X -10.81024395 20.11508513 -16.04985370
X -9.43386203 10.64295720 1.89442244
X -7.20682930 14.60262754 -8.02492888
X -7.20682930 22.18033565 -9.47214586
X -6.35617849 6.40687931 -20.28591556
X -15.26430941 16.32623224 -12.70821122
X -17.16642244 17.49705348 -10.81378455
X -15.26430941 27.14001068 -8.91936167
X -14.41365860 17.49704925 -20.28592051
X -3.60341465 10.19574256 -0.44721815
X -18.01707325 2.61803210 -4.23606915
X -10.28451284 21.73312146 -10.81378645
X -15.26430941 8.74852558 -8.02492627
X -7.20682930 18.39147898 -14.60263934
X -15.79004052 21.73312101 -11.81378645
X -14.41365860 2.34164059 -0.44721464
X 2.22703273 20.56230211 -8.47214514
X -2.75276384 16.04984028 -9.91935672
X 2.22703273 15.32623369 -9.47214280
X -21.62048790 17.49705727 -2.34164860
X -13.03727668 11.81376852 -18.39149078
X -1.37638192 21.73312290 -7.57771847
X -5.83044738 14.15541289 -10.36656947
X -10.81024395 10.19574256 -0.44721815
X -11.66089476 3.78884532 -20.28591440
X -14.41365860 3.78884911 -11.81377844
X -21.62048790 22.18032998 -22.18034979
X -14.41365860 20.73311912 -16.04985398
X -10.81024395 21.90394225 -9.91935933
X -18.86772405 19.83869362 -12.26099920
X -10.81024395 16.32622990 -17.94427920
X -11.66089476 23.62754696 -14.60264168
X 2.22703273 9.19573833 -9.91935366
X 2.22703273 6.85410008 -4.23607104
X -2.75276384 13.70819970 -9.47214208
X -8.58321122 19.39148087 -10.36657181
X -3.60341465 4.95967224 -5.68328379
X -11.66089476 15.15541100 -14.60263789
X -13.88792749 16.77344688 -10.36657064
X -18.86772405 15.15541290 -10.36656991
X -8.05748011 11.09016995 -0.00000495
X -15.26430941 13.43180440 -14.15542352
X 4.45406546 12.26098316 -16.04985019
X -1.37638192 21.73312335 -6.57771847
X 3.07768354 8.02491329 -20.28591628
X -14.41365860 11.36656569 5.68327650
X -23.84752062 10.64295531 -2.34164554
X -7.20682930 19.83869741 -3.78886324
X -9.43386203 22.90394270 -8.91935978
X -16.64069133 12.98459779 1.44720780
X -9.43386203 11.53737891 -10.36656830
X -0.52573111 9.19573833 -9.91935366
X -22.47113870 16.32623793 -0.00000729
X -10.81024395 12.53737891 -10.36656874
X -18.86772405 12.26098930 -2.34164626
X -7.20682930 13.70819825 -12.70821005
X -9.43386203 26.69279748 -8.02493428
X -8.58321122 27.86361494 -14.60264357
X -13.56300779 18.66787661 -4.68328991
X -14.93938971 20.56230590 -0.00000918
X -6.35617849 12.53738081 -6.13050077
X -13.56300779 18.66787049 -18.39149384
X -22.47113870 16.32623414 -8.47214325
X -18.86772405 11.36656146 -3.78885946
X -3.60341465 8.74852368 -12.26099425
X -13.88792749 14.43180440 -14.15542397
X -12.18662587 21.45673140 -3.78886396
X -15.26430941 22.45672572 -16.49706834
X -11.33597506 17.94426812 -8.47214397
X -13.03727668 8.02492132 -2.34164437
X -5.83044738 25.52197435 -14.15542893
X -18.86772405 12.26098550 -10.81378221
X -2.75276384 6.13049159 -8.02492510
X -4.97979657 6.85409819 -8.47213902
X -15.26430941 11.09016192 -17.94427686
X 4.45406546 13.70819825 -12.70821005
X -10.81024395 10.19574066 -4.68328612
X 2.22703273 14.43181243 3.78884794
X -7.20682930 14.60262375 -16.49706483
X -9.95959314 25.96919322 -2.34165238
X -13.03727668 8.02492321 1.89442361
X -13.88792749 19.11509126 -2.34164932
X -10.81024395 22.45672716 -13.26100037
X -2.75276384 15.15541669 -1.89443396
X -16.64069133 6.85410197 -0.00000306
X -3.60341465 12.53738270 -1.89443279
X -24.69817143 11.81376852 -18.39149078
X -22.47113870 14.87902094 -7.57771541
X -6.35617849 21.00951720 -5.13050455
X 6.68109819 12.98458976 -16.49706411
X -16.64069133 6.85409819 -8.47213902
X -7.73256041 15.32623793 -0.00000684
X -13.03727668 26.41640219 -12.70821573
X -4.97979657 15.32623369 -9.47214280
X -7.20682930 11.36656380 1.44720852
X -2.22703273 6.85410197 -0.00000306
X -22.47113870 11.09016192 -17.94427686
X -16.64069133 29.03443618 -12.70821690
X -9.43386203 20.56230590 -0.00000918
X -4.12914576 19.39148087 -10.36657181
X -7.20682930 27.41640174 -13.70821618
X -8.58321122 17.94426812 -8.47214397
X -15.26430941 7.30131094 -10.36656641
X -4.97979657 14.43180674 -8.91935599
X -3.60341465 27.14001023 -9.91936167
X -16.64069133 16.77345112 -0.89443468
X -6.35617849 18.66788041 3.78884605
X -9.43386203 19.11508513 -16.04985325
X -4.12914576 13.26098316 -16.04985064
X -19.39345517 12.98459355 -8.02492816
X -9.43386203 25.24558473 -6.13050644
X -9.95959314 23.62755074 -6.13050572
X -15.79004052 24.07475971 -16.49706907
X 0.85065081 8.74852368 -12.26099425
X -9.43386203 6.85409205 -22.18034295
X -20.24410598 24.07475971 -16.49706907
X -11.66089476 12.26098316 -16.04985019
X -14.41365860 17.49705727 -2.34164860
X -11.66089476 6.13048970 -12.26099308
X -8.58321122 26.41640408 -8.47214775
X -18.86772405 6.13048970 -12.26099308
X 0.00000000 3.78885145 -6.57771046
X -2.75276384 17.49705348 -10.81378455
X -14.41365860 19.83869975 1.44720474
X -9.95959314 19.83869173 -16.49706717
X -15.79004052 8.02491943 -6.57771235
X -3.60341465 18.66788041 3.78884605
X -15.26430941 7.30131283 -6.13049843
X -23.84752062 3.06524674 -1.89442856
X -10.81024395 16.32623179 -13.70821122
X 4.45406546 9.91934871 -1.89443162
X -6.35617849 14.87902329 -2.34164743
X -11.66089476 9.91934492 -10.36656758
X -9.95959314 3.78884722 -16.04984642
X -4.97979657 14.43180630 -9.91935599
X -15.26430941 12.53737846 -11.36656875
X -8.58321122 13.26098316 -16.04985064
X -8.58321122 15.60261952 -25.96920124
X -10.81024395 8.74852792 -2.78885829
X -7.20682930 8.47213407 -4.23607176
X -9.43386203 21.45672761 -12.26099992
X -15.26430941 9.64295531 -2.34164509
X -15.26430941 15.77344688 -10.36657019
X -12.18662587 9.19573833 -9.91935366
X -21.62048790 6.13049348 -3.78885712
X -24.69817143 11.81377041 -14.15542280
X -8.58321122 15.60262988 -2.78886135
X -8.58321122 19.39148042 -11.36657181
X -18.01707325 12.53738125 -5.13050077
X -24.69817143 10.36655957 -8.02492699
X -14.41365860 3.78885334 -2.34164248
X -17.16642244 16.04983839 -14.15542469
X -16.64069133 26.69279370 -16.49707024
X -13.03727668 14.15541245 -11.36656947
X 0.85065081 11.09016806 -4.23607293
X -9.95959314 13.70819970 -9.47214208
X -21.62048790 17.49705917 1.89441938
X -21.62048790 12.26098316 -16.04985019
X -8.58321122 24.07476160 -12.26100109
X -8.58321122 21.73312524 -2.34165049
X -23.84752062 26.69279937 -3.78886630
X -8.58321122 17.94426578 -13.70821195
X -1.37638192 11.81377655 -0.44721887
X -13.56300779 18.66787472 -8.91935789
X -13.88792749 16.77345068 -1.89443468
X 6.68109819 12.98459545 -3.78886018
X -15.26430941 21.00951909 -0.89443657
X -9.95959314 14.60262375 -16.49706483
X -18.01707325 1.17081935 -2.34164131
X -6.35617849 13.43180820 -5.68328757
X -4.97979657 12.98459589 -2.78886018
X -11.66089476 18.39148466 -1.89443540
X -9.43386203 24.35115122 -20.28592357
X -10.81024395 13.43180864 -4.68328757
X -8.58321122 6.57770478 -8.91935249
X -2.75276384 12.26099119 1.89442172
X -7.20682930 18.39147853 -15.60263934
X -14.41365860 24.52197624 -9.91936050
X -5.83044738 20.28591016 -5.68329063
X -19.39345517 26.69279748 -8.02493428
X -3.60341465 27.14001212 -5.68329369
X -2.75276384 11.36655767 -12.26099541
X -15.79004052 21.73312524 -2.34165049
X -14.41365860 9.91935294 7.57770434
X 2.22703273 26.69279748 -8.02493428
X -6.35617849 11.09016806 -4.23607293
X -13.56300779 8.74852368 -12.26099425
X -4.12914576 24.07476583 -2.78886513
X -13.88792749 14.43180630 -9.91935599
X -17.49134213 5.68327271 -19.83870165
X -3.60341465 12.53738081 -6.13050077
X -15.26430941 13.43181243 3.78884839
X -26.07455335 16.04983839 -14.15542469
X -10.81024395 21.00951675 -6.13050455
X -8.05748011 11.09016616 -8.47214091
X -20.24410598 11.81377276 -8.91935482
X -11.66089476 9.91934302 -14.60263555
X -8.58321122 11.81377844 3.78884911
X -11.66089476 17.49705114 -16.04985253
X -7.20682930 0.00000000 0.00000000
X -14.41365860 13.70820628 5.23606186
X -7.20682930 15.15541100 -14.60263789
X -8.05748011 14.87902139 -6.57771541
X -10.81024395 11.09017418 9.47213101
X -10.81024395 0.27638584 -16.49705844
X -13.03727668 26.41640408 -8.47214775
X -18.86772405 17.49705917 1.89441938
X -10.81024395 21.90393847 -18.39149529
X -2.22703273 19.11508513 -16.04985325
X -5.83044738 20.28590826 -9.91935861
X -10.28451284 19.39148277 -6.13050383
X -1.37638192 15.60262754 -8.02492933
X 0.85065081 12.53738081 -6.13050077
X -18.86772405 13.70820205 -4.23607410
X -19.39345517 16.77344499 -14.60263861
X -18.01707325 30.92886735 -3.78886819
X -18.01707325 21.00951486 -10.36657253
X -4.97979657 10.64294728 -20.28591745
X 6.68109819 16.77344499 -14.60263861
X -12.18662587 10.64294728 -20.28591745
X -28.30158608 16.77344878 -6.13050266
X -12.18662587 10.64295297 -7.57771352
X -16.64069133 0.72360048 -14.15541786
X -21.62048790 19.83869741 -3.78886324
X -4.12914576 15.60262375 -16.49706528
X -6.35617849 22.45672572 -16.49706834
X -7.20682930 9.02492132 -2.34164482
X 4.45406546 13.70820015 -8.47214208
X -3.60341465 19.56229788 -17.94428065
X 4.45406546 12.26098696 -7.57771424
X -20.24410598 15.60262798 -7.02492933
X -5.83044738 15.60262798 -7.02492933
X -14.41365860 19.83869317 -13.26099920
X -18.01707325 -1.17082313 -6.13049465
X -13.03727668 17.94426200 -22.18034790
X 0.85065081 14.87902139 -6.57771541
X -4.97979657 5.40688922 1.89442478
X -2.75276384 14.60262375 -16.49706483
X -3.60341465 12.53738125 -5.13050077
X -4.97979657 16.77344922 -5.13050266
X -15.79004052 11.81377465 -4.68328685
X -4.97979657 22.90394459 -4.68329180
X -10.81024395 2.61803210 -4.23606915
X -17.49134213 19.39148087 -10.36657181
X -13.03727668 1.89442550 -3.78885523
X -13.56300779 21.00951297 -14.60264051
X -3.60341465 24.79836775 -13.70821501
X -17.16642244 6.13048780 -16.49706106
X -8.58321122 3.34163447 -14.15541903
X -18.86772405 14.60262564 -12.26099686
X -9.43386203 29.03443618 -12.70821690
X -10.81024395 11.09017229 5.23606303
X -26.07455335 12.26098316 -16.04985019
X -14.41365860 13.70819402 -22.18034601
X -10.81024395 21.00951486 -10.36657253
X -6.35617849 11.09016616 -8.47214091
X -1.37638192 8.02492321 1.89442361
X -19.39345517 15.32623369 -9.47214280
X -13.03727668 -0.44722076 -16.04984453
X 2.22703273 26.69279559 -12.26100226
X -16.64069133 5.40688354 -10.81377916
X -7.20682930 9.91935105 3.34163636
X -5.83044738 21.73312101 -11.81378645
X -21.62048790 3.78884956 -10.81377844
X -21.62048790 22.18033376 -13.70821384
X 3.07768354 19.39148087 -10.36657181
X -4.97979657 8.30131283 -6.13049888
X 0.85065081 22.45672950 -8.02493239
X -13.03727668 18.83869552 -8.02493077
X -16.64069133 10.64295297 -7.57771352
X 0.85065081 12.53738270 -1.89443279
X -14.41365860 25.96918710 -16.04985632
X -12.18662587 3.06524107 -14.60263250
X -0.52573111 20.56230400 -4.23607716
X -4.97979657 12.09016995 -0.00000540
X -8.05748011 13.43180820 -5.68328757
X -3.60341465 -1.17082691 -14.60263061
X -12.18662587 29.03444185 -0.00001296
X -17.16642244 23.62754696 -14.60264168
X -6.35617849 12.53737278 -24.07477268
X -10.81024395 8.74852558 -8.02492627
X -26.07455335 9.91934492 -10.36656758
X -16.64069133 5.40688733 -2.34164320
X -14.41365860 1.44721275 -1.89442784
X -4.97979657 5.40688733 -2.34164320
X -0.52573111 18.22065774 -16.49706645
X -21.09475678 6.85409774 -9.47213902
X -18.01707325 11.09016192 -17.94427686
X -16.64069133 9.19574022 -5.68328568
X -20.24410598 14.15541245 -11.36656947
X -18.01707325 14.87902329 -2.34164743
X -7.20682930 12.26098506 -11.81378222
X -11.33597506 10.36655577 -16.49706294
X -8.58321122 16.49705114 -16.04985208
X -9.43386203 12.09016995 -0.00000540
X -18.86772405 3.78884722 -16.04984642
X -15.79004052 5.68327884 -6.13049771
X 0.85065081 4.95967035 -9.91935177
X -20.24410598 20.28590637 -14.15542659
X -0.52573111 22.90394648 -0.44722382
X -20.24410598 19.39148466 -1.89443585
X -12.18662587 10.64295720 1.89442244
X -9.43386203 17.66787238 -14.15542542
X -14.41365860 13.70820205 -4.23607410
X -10.28451284 21.73312335 -6.57771847
X -18.01707325 24.79837009 -8.47214703
X -17.49134213 10.36655957 -8.02492699
X -22.47113870 13.43180820 -5.68328757
X -12.18662587 5.40688354 -10.81377916
X -16.64069133 11.53737891 -10.36656830
X -6.35617849 18.66787661 -4.68328991
X -5.83044738 15.60262988 -2.78886135
X -8.58321122 10.36656146 -3.78885901
X -22.47113870 24.79837387 -0.00001107
X -3.60341465 23.35115311 -16.04985515
X 0.85065081 13.43180820 -5.68328757
X -13.88792749 6.85409774 -9.47213902
X -8.58321122 8.02491709 -11.81378033
X -7.73256041 10.64295297 -7.57771352
X -15.79004052 15.60262375 -16.49706528
X -2.75276384 9.91933879 -24.07477151
X -10.81024395 12.53737701 -14.60263672
X -21.62048790 -0.00000189 -4.23606798
X -16.64069133 9.19573833 -9.91935366
X -21.09475678 20.56230022 -12.70821312
X -7.20682930 3.78885145 -6.57771046
X -11.33597506 11.81376852 -18.39149078
X -10.81024395 21.00950874 -24.07477646
X -12.18662587 19.11508702 -11.81378528
X -6.35617849 9.64295341 -6.57771307
X -7.20682930 25.96918710 -16.04985632
X 3.07768354 11.81377231 -9.91935483
X -11.66089476 19.83869173 -16.49706717
X -9.43386203 12.98459121 -13.26099614
X -12.18662587 9.19573877 -8.91935365
X -7.20682930 25.96918521 -20.28592430
X -14.41365860 11.36655577 -16.49706339
X -10.81024395 8.74851944 -21.73313020
X -10.81024395 24.79836586 -17.94428299
X -1.37638192 20.28590826 -9.91935861
X -2.75276384 7.57770434 -9.91935294
X -18.01707325 4.95966656 -18.39148773
X -8.05748011 22.45672572 -16.49706834
X -19.39345517 6.85410197 -0.00000306
X -15.26430941 9.64295152 -10.81378105
X -4.97979657 12.98458742 -21.73313209
X -15.79004052 11.81377844 3.78884911
X -18.01707325 17.22066152 -8.02493005
X -8.58321122 16.49705304 -11.81378411
X -7.20682930 29.75804422 -9.91936284
X -15.26430941 13.43180864 -4.68328757
X -4.97979657 6.85410008 -4.23607104
X -7.20682930 19.83869317 -13.26099920
X 3.07768354 10.36655957 -8.02492699
X -18.86772405 16.04984073 -8.91935672
X 0.00000000 25.96918899 -11.81378834
X -11.66089476 19.83869551 -8.02493122
X -13.03727668 24.07475971 -16.49706907
X -11.66089476 7.57770055 -18.39148889
X -12.18662587 20.56230022 -12.70821312
X -16.64069133 22.90393847 -18.39149573
X -4.97979657 16.77345491 7.57770127
X -14.41365860 12.26098550 -10.81378221
X -19.39345517 14.43180674 -8.91935599
X -13.03727668 14.15540866 -19.83870542
X -3.60341465 18.66787617 -5.68328991
X -8.58321122 21.73311723 -20.28592240
X -7.20682930 25.96919322 -2.34165238
X -14.41365860 11.36656380 1.44720852
X -8.58321122 26.41640219 -12.70821573
X -14.41365860 -0.00000189 -4.23606798
X -13.56300779 24.79837009 -8.47214703
X -17.49134213 24.07476961 5.68327082
X -0.52573111 10.64295107 -11.81378150
X -10.81024395 27.14001635 3.78884226
X -5.83044738 24.07476538 -3.78886513
X -13.03727668 4.23606231 -12.70820583
X -18.86772405 6.13049159 -8.02492510
X -7.20682930 3.78885523 1.89442550
X -24.69817143 17.94427192 -0.00000801
X -18.86772405 16.04984028 -9.91935672
X -14.41365860 9.91935105 3.34163636
X -3.60341465 21.00951297 -14.60264051
X -3.60341465 18.66787851 -0.44722193
X -18.86772405 9.91933879 -24.07477151
X -8.05748011 18.66787661 -4.68328991
X -9.43386203 9.19574256 -0.44721770
X -2.22703273 9.19573833 -9.91935366
X -8.58321122 14.15541713 -0.89443351
X -15.26430941 11.09016426 -12.70820888
X -14.41365860 16.04983227 -27.86362863
X -10.81024395 12.53737846 -11.36656875
X -16.64069133 10.64295152 -10.81378149
X -12.18662587 18.22065963 -12.26099847
X -10.81024395 14.87901671 -17.04985137
X -8.58321122 9.47212604 -22.18034412
X -4.45406546 23.62755074 -6.13050572
X -8.58321122 17.94426200 -22.18034790
X -4.12914576 17.04984029 -9.91935717
X -8.05748011 4.95966656 -18.39148773
X -21.09475678 22.90394838 3.78884416
X -21.09475678 16.77345068 -1.89443468
X -17.49134213 19.39147898 -14.60263978
X -10.81024395 21.00951909 -0.89443657
X -17.49134213 17.94426623 -12.70821195
X -4.97979657 19.11508747 -10.81378528
X -3.60341465 8.74852981 1.44720969
X -17.49134213 20.28590871 -8.91935861
X -14.41365860 14.60262564 -12.26099686
X -10.81024395 2.61802832 -12.70820511
X -8.05748011 8.74852368 -12.26099425
X -6.35617849 12.53737657 -15.60263672
X -8.05748011 17.22066342 -3.78886207
X -9.95959314 13.70819591 -17.94427803
X -5.83044738 1.89442361 -8.02492321
X -6.35617849 17.22065963 -12.26099803
X -14.41365860 12.26098696 -7.57771424
X -1.37638192 5.68327505 -14.60263366
X -11.66089476 17.49705493 -7.57771658
X -7.73256041 10.64294918 -16.04984947
X -4.97979657 3.06524296 -10.36656452
X -28.30158608 12.98459165 -12.26099613
X -20.24410598 17.94426768 -9.47214397
X -15.26430941 19.56230590 -0.00000874
X -4.12914576 16.49705727 -2.34164815
X -10.81024395 19.56230590 -0.00000874
X -16.64069133 17.66787049 -18.39149339
X -20.24410598 8.02491943 -6.57771235
X -18.86772405 22.18033421 -12.70821384
X -2.22703273 3.06524296 -10.36656452
X -4.97979657 9.19574256 -0.44721770
X -8.58321122 12.70819825 -12.70820960
X -9.43386203 8.30131093 -10.36656685
X -3.60341465 2.61802832 -12.70820511
X -11.66089476 16.04984263 -4.68328874
X -4.97979657 26.69279937 -3.78886630
X -13.03727668 27.86361683 -10.36657559
X -16.64069133 10.64295107 -11.81378150
X -7.20682930 13.70820249 -3.23607410
X -11.66089476 18.39148087 -10.36657136
X -23.84752062 15.32623369 -9.47214280
X -10.81024395 11.09017040 0.99999505
X -7.20682930 32.09968481 -10.36657748
X -13.03727668 8.02491898 -7.57771235
X -17.49134213 12.70819825 -12.70820960
X -5.83044738 25.52197246 -18.39149691
X -2.75276384 25.96919133 -6.57772036
X -11.33597506 19.39148087 -10.36657181
X 4.45406546 9.91934682 -6.13049960
X -23.84752062 26.69279748 -8.02493428
X -17.49134213 16.49705348 -10.81378411
X -8.58321122 12.70820204 -4.23607365
X -15.79004052 17.94426389 -17.94427992
X -4.97979657 24.35115122 -20.28592357
X -8.58321122 22.62754696 -14.60264123
X -4.97979657 10.64295152 -10.81378149
X -9.43386203 12.09016805 -4.23607338
X -9.95959314 7.57770623 -5.68328496
X -21.09475678 10.64294728 -20.28591745
X -8.05748011 8.74852558 -8.02492627
X -18.01707325 17.22065963 -12.26099803
X -14.41365860 9.91934682 -6.13049960
X -20.24410598 13.26098740 -6.57771469
X -10.81024395 27.14000834 -14.15542965
X -10.81024395 14.87901949 -10.81378338
X -15.26430941 4.95967224 -5.68328379
X -7.20682930 -0.00000189 -4.23606798
X -6.35617849 2.61802409 -22.18034106
X -3.60341465 28.58722109 -16.04985749
X -8.05748011 14.87902094 -7.57771541
X -10.81024395 14.87902139 -6.57771541
X -14.41365860 20.73312291 -7.57771802
X -0.52573111 20.56230022 -12.70821312
X -13.03727668 20.28590448 -18.39149456
X -10.81024395 0.27638962 -8.02492249
X -14.41365860 1.44721086 -6.13049582
X 3.07768354 17.94426623 -12.70821195
X -7.20682930 11.36655957 -8.02492744
X -20.24410598 1.89442172 -12.26099119
X -23.84752062 10.64295341 -6.57771351
X -13.03727668 23.18033187 -17.94428226
X -10.81024395 15.77345067 -1.89443423
X -10.81024395 4.06524106 -14.60263294
X -13.03727668 7.13049348 -3.78885757
X -11.66089476 6.13048780 -16.49706106
X -12.18662587 9.19574022 -5.68328568
X -9.95959314 19.83869741 -3.78886324
X -9.43386203 12.98459355 -8.02492816
X -2.22703273 14.43181053 -0.44722004
X -13.88792749 9.19573453 -18.39148961
X -6.35617849 13.43180251 -18.39149150
X -18.01707325 18.66787049 -18.39149384
X -13.56300779 14.87902518 1.89442055
X -12.18662587 14.43180674 -8.91935599
X -13.56300779 16.32623603 -4.23607527
X -20.24410598 14.15541669 -1.89443351
X -24.69817143 21.73312524 -2.34165049
X -7.73256041 6.85409205 -22.18034295
X -7.20682930 21.28590826 -9.91935906
X -2.75276384 17.49705303 -11.81378456
X -3.60341465 8.74852747 -3.78885829
X -1.37638192 11.81377421 -5.68328685
X -8.05748011 16.32623603 -4.23607527
X -10.81024395 12.53738693 7.57770317
X -20.24410598 27.86361872 -6.13050761
X -16.64069133 8.30130904 -14.60263483
X -8.58321122 17.94427425 5.23605997
X -0.52573111 16.77344878 -6.13050266
X -5.83044738 10.36655767 -12.26099497
X -19.39345517 22.90394225 -9.91935978
X 0.00000000 23.62754885 -10.36657370
X -13.56300779 11.09016192 -17.94427686
X -11.66089476 23.62754885 -10.36657370
X -12.18662587 17.66787617 -5.68328946
X -6.35617849 12.53737467 -19.83870470
X -13.03727668 4.23606798 -0.00000189
X -3.60341465 11.09016192 -17.94427686
X -9.43386203 8.30131472 -1.89443090
X -4.12914576 17.94427002 -4.23607599
X -13.56300779 4.95967224 -5.68328379
X 2.22703273 9.19573453 -18.39148961
X -12.18662587 6.85410008 -4.23607104
X -3.60341465 22.45672761 -12.26100037
X -13.56300779 11.09016382 -13.70820889
X -23.84752062 6.85410008 -4.23607104
X -10.81024395 19.56229599 -22.18034862
X 0.85065081 8.74852747 -3.78885829
X -20.24410598 9.47213596 -0.00000423
X -4.97979657 12.09016427 -12.70820933
X -18.01707325 28.58722487 -7.57772153
X -12.18662587 26.69279559 -12.26100226
X -10.81024395 12.53738314 -0.89443279
X -10.81024395 30.92886357 -12.26100415
X -3.60341465 22.45673140 -3.78886441
X -10.28451284 11.81376852 -18.39149078
X -10.28451284 11.81377041 -14.15542280
X -8.58321122 10.36656001 -7.02492699
X -13.56300779 7.30131283 -6.13049843
X -6.68109819 9.19573643 -14.15542164
X -8.58321122 20.28591250 -0.44722265
X 0.00000000 9.91934682 -6.13049960
X -13.03727668 9.47212983 -13.70820817
X -6.35617849 24.79837009 -8.47214703
X -21.62048790 12.26098696 -7.57771424
X -5.83044738 1.89441983 -16.49705917
X -8.05748011 8.74852747 -3.78885829
X -6.35617849 4.95966846 -14.15541975
X -16.64069133 12.98459545 -3.78886018
X -13.03727668 17.04984218 -5.68328919
X -3.60341465 14.87901949 -10.81378338
X -7.20682930 12.26098127 -20.28591817
X -12.18662587 0.72360048 -14.15541786
X -13.56300779 12.53737891 -10.36656874
X -2.75276384 19.83869362 -12.26099920
X -15.79004052 9.47213217 -8.47214018
X -13.03727668 17.94426623 -12.70821195
X -9.43386203 12.98459589 -2.78886018
X -21.09475678 16.77344499 -14.60263861
X -16.64069133 12.98459121 -13.26099614
X -12.18662587 22.90394459 -4.68329180
X -15.79004052 24.07476538 -3.78886513
X -16.64069133 18.22066153 -8.02493050
X -13.03727668 27.86361494 -14.60264357
X -4.97979657 12.98458932 -17.49706412
X -18.86772405 23.62754885 -10.36657370
X -13.03727668 24.07476394 -7.02493311
X -2.75276384 8.47213407 -4.23607176
X -1.37638192 25.52197246 -18.39149691
X -7.20682930 12.26098740 -6.57771424
X -16.64069133 29.03444185 -0.00001296
X -7.20682930 8.47213218 -8.47213974
X -7.20682930 15.15541479 -6.13050194
X -7.73256041 22.90394648 -0.44722382
X 2.22703273 3.06524485 -6.13049654
X -9.43386203 16.77344454 -15.60263861
X -4.97979657 22.90394648 -0.44722382
X -8.05748011 14.87902329 -2.34164743
X 3.07768354 17.94427192 -0.00000801
X -16.64069133 26.69279748 -8.02493428
X -6.35617849 17.22066387 -2.78886207
X -13.03727668 8.02491709 -11.81378033
X -0.52573111 14.43180251 -18.39149195
X -9.43386203 9.19573877 -8.91935365
X -3.60341465 7.30130904 -14.60263439
X -17.49134213 20.28591440 3.78884532
X -9.95959314 9.91933879 -24.07477151
X -9.43386203 22.90394459 -4.68329180
X -4.97979657 16.77345301 3.34163330
X -7.20682930 15.15541669 -1.89443396
X -6.35617849 21.00952099 3.34163141
X -8.58321122 14.15540677 -24.07477340
X -24.69817143 19.39147898 -14.60263978
X -3.60341465 27.14000645 -18.39149763
X -0.52573111 20.56230211 -8.47214514
X -3.60341465 4.95966656 -18.39148773
X -12.18662587 22.90394838 3.78884416
X 0.85065081 4.95966656 -18.39148773
X -12.18662587 16.77344644 -11.36657064
X -15.79004052 25.52197624 -9.91936095
X -18.01707325 18.66787472 -8.91935789
X -10.81024395 24.79837009 -8.47214703
X -15.79004052 16.49705114 -16.04985208
X 0.00000000 11.36656190 -2.78885946
X -8.58321122 11.81376618 -23.62755876
X -3.60341465 11.09016382 -13.70820889
X -10.81024395 17.22065351 -25.96920196
X -18.01707325 14.87902094 -7.57771541
X -15.79004052 8.02491753 -10.81378032
X -5.83044738 9.47213217 -8.47214018
X -18.01707325 11.09016995 -0.00000495
X -2.75276384 9.91934068 -19.83870353
X -2.75276384 25.96918944 -10.81378834
X -14.41365860 14.60262944 -3.78886090
X -15.79004052 8.02491329 -20.28591628
X -3.60341465 23.35115689 -7.57771919
X -18.86772405 9.91934448 -11.36656758
X -4.12914576 9.47212794 -17.94427614
X -15.79004052 1.89442172 -12.26099119
X -10.81024395 23.35115500 -11.81378717
X -7.20682930 15.15541290 -10.36656991
X -15.26430941 2.61802976 -9.47213713
X -12.18662587 16.77344878 -6.13050266
X -14.41365860 16.04984263 -4.68328874
X -15.79004052 14.15541669 -1.89443351
X -22.47113870 17.22065774 -16.49706600
X -17.49134213 15.60262564 -12.26099730
X -18.86772405 14.60262754 -8.02492888
X -9.43386203 15.32623603 -4.23607482
X -13.88792749 12.98459355 -8.02492816
X -20.24410598 14.15541479 -6.13050149
X -11.66089476 21.28590826 -9.91935906
X -19.39345517 3.06524485 -6.13049654
X -0.52573111 9.19573453 -18.39148961
X -18.01707325 18.66787617 -5.68328991
X -9.43386203 4.51245760 -8.02492438
X -10.81024395 18.66787617 -5.68328991
X -21.09475678 19.11509316 1.89441865
X -20.24410598 20.28591016 -5.68329063
X -8.05748011 8.74852178 -16.49706222
X -10.81024395 15.77344499 -14.60263816
X -10.81024395 20.11508702 -11.81378573
X -7.20682930 13.70820015 -8.47214208
X -10.28451284 15.60262944 -3.78886135
X -8.58321122 27.86361683 -10.36657559
X -1.37638192 4.23606420 -8.47213785
X -7.20682930 9.91934726 -5.13049959
X -10.81024395 29.48165271 -6.13050833
X -8.05748011 18.66787617 -5.68328991
X -17.16642244 17.49705917 1.89441938
X -8.58321122 15.60262564 -12.26099730
X -13.03727668 7.13049159 -8.02492555
X 4.45406546 23.62754885 -10.36657370
X -2.22703273 22.90394414 -5.68329180
X -21.62048790 25.96918521 -20.28592430
X -16.64069133 4.51245381 -16.49706033
X -4.12914576 10.36656146 -3.78885901
X -16.64069133 14.43180630 -9.91935599
X -10.81024395 13.43180251 -18.39149150
X -18.01707325 1.17082124 1.89442667
X -14.41365860 23.62754462 -19.83870965
X -23.84752062 19.11508324 -20.28592123
X -13.03727668 16.49705917 1.89441983
X -16.64069133 12.09016616 -8.47214135
X -19.39345517 15.32623180 -13.70821078
X -1.37638192 14.15541479 -6.13050149
X -13.03727668 5.68327695 -10.36656569
X -3.60341465 10.19574445 3.78884983
X -18.86772405 23.62755263 -1.89443774
X -18.01707325 22.45672761 -12.26100037
X 2.22703273 26.69279937 -3.78886630
X -2.22703273 19.11508702 -11.81378528
X -10.81024395 6.40688120 -16.04984759
X -15.26430941 24.79837387 -0.00001107
X -7.20682930 16.04983416 -23.62756065
X -9.95959314 25.96919133 -6.57772036
X -15.79004052 4.23606231 -12.70820583
X -13.03727668 26.41640597 -4.23607977
X -3.60341465 16.32623603 -4.23607527
X 0.85065081 12.53737891 -10.36656874
X -17.49134213 20.28591250 -0.44722265
X -12.18662587 15.32622801 -22.18034673
X -3.60341465 1.17081557 -10.81377727
X -11.66089476 3.78884722 -16.04984642
X -4.12914576 5.68327461 -15.60263367
X 0.85065081 18.66787427 -9.91935789
X -8.05748011 22.45672950 -8.02493239
X 4.45406546 16.04984218 -5.68328874
X -18.01707325 21.00951675 -6.13050455
X -11.33597506 11.81377421 -5.68328685
X -9.95959314 12.26098127 -20.28591817
X -10.81024395 24.79836964 -9.47214703
X -18.01707325 13.43180251 -18.39149150
X -9.43386203 17.66787428 -9.91935744
X 4.45406546 12.26098506 -11.81378222
X 2.22703273 10.64295531 -2.34164554
X -17.49134213 21.73312335 -6.57771847
X -8.05748011 12.53738081 -6.13050077
X -18.86772405 18.39148466 -1.89443540
X -8.58321122 15.60263367 5.68327461
X -14.41365860 6.13049393 -2.78885712
X -5.83044738 21.73312524 -2.34165049
X -7.73256041 16.77344499 -14.60263861
X -13.03727668 10.91934303 -14.60263600
X -18.86772405 15.15541479 -6.13050194
X -6.35617849 13.98458976 -16.49706456
X -10.81024395 18.66786626 -27.86362980
X -9.95959314 14.60262564 -12.26099686
X -3.60341465 4.95967269 -4.68328379
X -6.68109819 16.77345068 -1.89443468
X -16.64069133 14.43180251 -18.39149195
X -9.43386203 21.45672572 -16.49706790
X -12.18662587 6.85409205 -22.18034295
X -18.01707325 30.92886168 -16.49707213
X -9.43386203 6.85409819 -8.47213902
X -8.58321122 19.39148466 -1.89443585
X -10.81024395 11.09016850 -3.23607293
X -19.39345517 20.56230590 -0.00000918
X -9.43386203 10.64294728 -20.28591745
X -9.95959314 17.49705493 -7.57771658
X -4.97979657 14.43181053 -0.44722004
X -17.49134213 20.28591060 -4.68329063
X -2.75276384 7.57770623 -5.68328496
X -5.83044738 11.81377655 -0.44721887
X -5.83044738 21.73312290 -7.57771847
X -14.41365860 13.70819591 -17.94427803
X -15.26430941 4.95966656 -18.39148773
X -6.35617849 11.09016382 -13.70820889
X -23.84752062 3.06524485 -6.13049654
X -14.41365860 9.02491942 -6.57771279
X -4.97979657 6.85409629 -12.70820699
X -2.75276384 7.57770055 -18.39148889
X -3.60341465 16.32623224 -12.70821122
X 2.22703273 10.64295152 -10.81378149
X -14.41365860 15.15541100 -14.60263789
X -13.03727668 26.41640786 -0.00001179
X -10.81024395 13.43181054 -0.44721959
X -8.05748011 12.53738270 -1.89443279
X -18.86772405 7.57770244 -14.15542092
X -16.64069133 0.72359859 -18.39148583
X -7.20682930 19.83870165 5.68327271
X -7.20682930 2.34164059 -0.44721464
X -22.47113870 18.66787238 -14.15542586
X -6.35617849 2.61802787 -13.70820511
X -18.86772405 17.49705303 -11.81378456
X -10.81024395 17.22065919 -13.26099803
X -4.12914576 24.07476394 -7.02493311
X -14.41365860 13.70820438 0.99999388
X -20.24410598 13.26098929 -2.34164671
X -15.26430941 15.77344878 -6.13050221
X -7.20682930 21.28590448 -18.39149501
X -6.35617849 16.32623793 -0.00000729
X -6.35617849 20.11508892 -7.57771775
X 6.68109819 20.56230022 -12.70821312
X -2.75276384 12.26098316 -16.04985019
X -20.24410598 8.02492321 1.89442361
X -9.43386203 15.32623413 -8.47214280
X -20.24410598 5.68328073 -1.89442973
X 3.07768354 15.60262564 -12.26099730
X -19.39345517 14.43180864 -4.68328802
X -20.24410598 5.68327505 -14.60263366
X -5.83044738 21.73312146 -10.81378645
X -7.20682930 8.47213596 -0.00000378
X -24.69817143 15.60262375 -16.49706528
X -7.73256041 10.64295107 -11.81378150
X -22.47113870 11.09016426 -12.70820888
X -8.58321122 11.81376808 -19.39149079
X -14.41365860 9.91934871 -1.89443162
X -2.22703273 20.56230022 -12.70821312
X -13.88792749 15.32623603 -4.23607482
X -22.47113870 21.00951675 -6.13050455
X -10.81024395 22.45672149 -25.96920430
X -21.62048790 11.36656001 -7.02492743
X -7.73256041 19.11509316 1.89441865
X -2.75276384 23.62755263 -1.89443774
X -10.81024395 16.32623369 -9.47214325
X -22.47113870 22.45673140 -3.78886441
X -16.64069133 12.98459400 -7.02492816
X -8.58321122 11.81377231 -9.91935483
X -16.64069133 20.56229599 -22.18034907
X -1.37638192 11.81377465 -4.68328685
X -9.95959314 21.28590826 -9.91935906
X -5.83044738 1.89442550 -3.78885523
X -17.16642244 16.04983650 -18.39149267
X -2.22703273 20.56230211 -8.47214514
X 0.00000000 3.78885334 -2.34164248
X -13.56300779 16.32623793 -0.00000729
X -1.37638192 15.60262944 -3.78886135
X -14.41365860 20.73311723 -20.28592195
X -0.52573111 16.77344499 -14.60263861
X -10.81024395 26.24558050 -15.60264285
X -9.95959314 16.04984453 -0.44722076
X -15.26430941 24.79837009 -8.47214703
X -14.41365860 25.96918899 -11.81378834
X -16.64069133 22.90394036 -14.15542776
X 4.45406546 16.04983650 -18.39149267
X -10.81024395 14.87901526 -20.28591934
X -11.66089476 19.83870165 5.68327271
X -1.37638192 14.15540677 -24.07477340
X -26.07455335 9.91934302 -14.60263555
X -4.97979657 9.19573877 -8.91935365
X -8.05748011 11.09016192 -17.94427686
X -13.03727668 25.52197813 -5.68329297
X -15.79004052 19.39148087 -10.36657181
X -13.03727668 12.70820015 -8.47214163
X -9.43386203 24.35115689 -7.57771964
X -6.35617849 16.32623179 -13.70821122
X -26.07455335 9.91934871 -1.89443162
X -4.97979657 29.03443996 -4.23608094
X -21.09475678 20.56230590 -0.00000918
X -9.43386203 12.98459165 -12.26099613
X -13.03727668 8.02491329 -20.28591628
X -15.79004052 8.02491709 -11.81378033
X -4.97979657 20.56230166 -9.47214514
X -6.35617849 9.64295152 -10.81378105
X -5.83044738 8.02491709 -11.81378033
X -4.97979657 18.22066153 -8.02493050
X -28.30158608 9.19574022 -5.68328568
X -9.43386203 19.11508702 -11.81378528
X -18.86772405 8.47213596 -0.00000378
X -15.79004052 11.81377041 -14.15542280
X -9.43386203 11.53738270 -1.89443234
X -4.12914576 11.81377231 -9.91935483
X -15.26430941 16.32623369 -9.47214325
X -14.41365860 21.28590826 -9.91935906
X -7.73256041 16.77345068 -1.89443468
X -9.43386203 6.85409395 -17.94427498
X -6.35617849 22.45672950 -8.02493239
X -19.39345517 9.19573453 -18.39148961
X -13.88792749 22.90394838 3.78884416
X -23.84752062 3.06524107 -14.60263250
X -21.62048790 19.83869362 -12.26099920
X -13.56300779 22.45672761 -12.26100037
X -13.03727668 11.81377231 -9.91935483
X -18.01707325 4.95967458 -0.44721581
X -9.43386203 20.56229599 -22.18034907
X 0.00000000 18.39147475 -24.07477529
X -9.43386203 19.11508324 -20.28592123
X -21.09475678 22.90394459 -4.68329180
X -13.03727668 10.36655957 -8.02492699
X -18.86772405 18.39148087 -10.36657136
X -11.33597506 14.15541479 -6.13050149
X -5.83044738 20.28590448 -18.39149456
X -1.37638192 1.89442172 -12.26099119
X -9.95959314 23.62754696 -14.60264168
X -13.56300779 11.09016426 -12.70820888
X -10.81024395 18.66787851 -0.44722193
X -6.35617849 14.87901715 -16.04985136
X -2.75276384 21.28591016 -5.68329108
X -11.66089476 8.47213407 -4.23607176
X -14.41365860 5.23606609 -4.23607032
X -16.64069133 14.43181243 3.78884794
X -4.12914576 15.60262754 -8.02492933
X -4.12914576 19.39148466 -1.89443585
X -12.18662587 14.43180820 -5.68328802
X -6.35617849 18.66787427 -9.91935789
X -5.83044738 13.26098551 -10.81378266
X -10.81024395 13.43180440 -14.15542352
X -7.20682930 7.57770478 -8.91935293
X -15.26430941 8.74852134 -17.49706223
X -20.24410598 25.52197246 -18.39149691
X -2.75276384 25.96919511 1.89441560
X -20.24410598 21.73312524 -2.34165049
X -2.75276384 15.15541100 -14.60263789
X -12.18662587 19.11509316 1.89441865
X -6.35617849 8.74852368 -12.26099425
X -16.64069133 15.32623224 -12.70821077
X -11.66089476 11.36655577 -16.49706339
X -14.41365860 18.39147475 -24.07477529
X 2.22703273 22.90394036 -14.15542776
X -16.64069133 4.51245760 -8.02492438
X -12.18662587 4.51245381 -16.49706033
X -16.64069133 3.06524296 -10.36656452
X -3.60341465 4.95967458 -0.44721581
X -10.81024395 20.11508892 -7.57771775
X -1.37638192 4.23606609 -4.23606987
X -15.79004052 14.15541479 -6.13050149
X -7.20682930 17.49705493 -7.57771658
X -15.79004052 15.60263367 5.68327461
X -9.95959314 22.18033989 -0.00000990
X -13.03727668 17.04983839 -14.15542514
X -2.75276384 8.47213028 -12.70820772
X -20.24410598 21.73312714 1.89441749
X -12.18662587 14.43180440 -14.15542397
X 2.22703273 15.32622990 -17.94427875
X -18.86772405 11.36655767 -12.26099541
X -5.83044738 11.81377041 -14.15542280
X -13.88792749 11.53737891 -10.36656830
X -11.33597506 17.94427192 -0.00000801
X -18.01707325 10.19573877 -8.91935410
X -8.58321122 11.81377655 -0.44721887
X -14.41365860 3.78884722 -16.04984642
X -12.18662587 3.06524674 -1.89442856
X -12.18662587 12.98459779 1.44720780
X -13.88792749 11.53737701 -14.60263627
X -8.58321122 19.39147475 -24.07477574
X -4.97979657 9.19573453 -18.39148961
X -8.58321122 11.81376430 -27.86362673
X 0.85065081 18.66787617 -5.68328991
X -9.95959314 17.49704925 -20.28592051
X -14.41365860 5.23606230 -12.70820627
X -10.81024395 24.79836820 -12.70821501
X -8.05748011 14.87901949 -10.81378338
X 0.85065081 11.09016382 -13.70820889
X -7.73256041 12.98459165 -12.26099613
X -18.86772405 19.83870165 5.68327271
X -14.41365860 16.04984028 -9.91935672
X -12.18662587 14.43180630 -9.91935599
X -3.60341465 -1.17082313 -6.13049465
X -14.93938971 20.56230400 -4.23607716
X -6.35617849 2.61802598 -17.94427309
X -10.28451284 17.94427192 -0.00000801
X -20.24410598 5.68327884 -6.13049771
X -9.43386203 9.19573833 -9.91935366
X -16.64069133 12.09016805 -4.23607338
X -10.28451284 17.94427002 -4.23607599
X -13.03727668 -0.44722265 -20.28591250
X -16.64069133 25.24558284 -10.36657442
X -10.81024395 21.00951297 -14.60264051
X -18.86772405 12.26098127 -20.28591817
X -8.58321122 23.18033565 -9.47214631
X -3.60341465 7.30131472 -1.89443045
X -12.18662587 6.85410197 -0.00000306
X -23.84752062 16.77345068 -1.89443468
X -4.45406546 12.26098696 -7.57771424
X -2.22703273 14.43181243 3.78884794
X -4.12914576 21.73312146 -10.81378645
X -9.43386203 3.06524296 -10.36656452
X -10.81024395 17.22065963 -12.26099803
X -12.18662587 24.35115689 -7.57771964
X -4.97979657 20.56230211 -8.47214514
X 4.45406546 6.13049348 -3.78885712
X -4.12914576 21.73312714 1.89441749
X -14.41365860 17.49705917 1.89441938
X -22.47113870 24.79837198 -4.23607905
X -8.58321122 10.36655957 -8.02492699
X -9.95959314 18.39147898 -14.60263934
X -21.62048790 6.13048780 -16.49706106
X 2.22703273 20.56230400 -4.23607716
X -20.24410598 16.49705493 -7.57771613
X -9.43386203 17.66787049 -18.39149339
X -8.58321122 27.86361872 -6.13050761
X 3.07768354 8.02491709 -11.81378033
X 4.45406546 13.70820205 -4.23607410
X -4.97979657 22.90394225 -9.91935978
X -22.47113870 11.09016616 -8.47214091
X -24.69817143 8.02491329 -20.28591628
X -10.81024395 14.87901292 -25.52198732
X -5.83044738 21.73311912 -16.04985443
X -9.95959314 19.83869551 -8.02493122
X -12.18662587 17.66787428 -9.91935744
X -10.28451284 8.02491329 -20.28591628
X -5.83044738 15.60263367 5.68327461
X -10.81024395 2.61802787 -13.70820511
X -6.35617849 13.43180674 -8.91935555
X -18.01707325 8.74852178 -16.49706222
X -8.58321122 20.28590871 -8.91935861
X -1.37638192 15.60262375 -16.49706528
X 0.00000000 13.70819825 -12.70821005
X -1.37638192 8.02491709 -11.81378033
X -6.35617849 21.00951297 -14.60264051
X -13.56300779 4.95967035 -9.91935177
X -10.81024395 7.85410008 -4.23607149
X -24.69817143 11.81377421 -5.68328685
X -10.81024395 27.14001212 -5.68329369
X -15.26430941 10.19573453 -18.39149006
X -14.41365860 8.47213407 -4.23607176
X -15.26430941 21.00952288 7.57769937
X -15.26430941 27.14001446 -0.44722571
X -10.81024395 7.85409818 -8.47213946
X 0.00000000 0.00000000 0.00000000
X -13.03727668 18.83869362 -12.26099875
X -6.35617849 14.87901526 -20.28591934
X -18.01707325 27.14000834 -14.15542965
X -15.79004052 15.60262944 -3.78886135
X -20.24410598 4.23606231 -12.70820583
X -2.22703273 14.43180864 -4.68328802
X -8.58321122 1.89442361 -8.02492321
X -7.20682930 9.02491942 -6.57771279
X -7.20682930 -2.34164248 -3.78885334
X -7.73256041 18.22065963 -12.26099847
X -20.24410598 15.60262754 -8.02492933
X -4.45406546 9.91934682 -6.13049960
X -11.66089476 9.91934258 -15.60263556
X -9.43386203 16.77345301 3.34163330
X -7.73256041 18.22066153 -8.02493050
X -4.45406546 13.70819825 -12.70821005
X -15.26430941 22.45673140 -3.78886441
X -7.20682930 16.04984028 -9.91935672
X -18.86772405 7.57770055 -18.39148889
X -21.09475678 19.11509126 -2.34164932
X -9.43386203 9.19573643 -14.15542164
X -14.41365860 22.18033187 -17.94428182
X -18.01707325 2.61802832 -12.70820511
X -5.83044738 9.47213407 -4.23607221
X -13.03727668 19.39148466 -1.89443585
X -13.03727668 24.07476961 5.68327082
X -20.24410598 11.81376852 -18.39149078
X -4.97979657 25.24558473 -6.13050644
X -10.81024395 17.22066577 1.44720591
X -7.20682930 9.91934448 -11.36656758
X -6.35617849 13.98459355 -8.02492860
X -8.58321122 6.57770857 -0.44721653
X -10.81024395 6.40688499 -7.57771163
X -8.58321122 14.15540866 -19.83870542
X -1.37638192 17.94427002 -4.23607599
X -2.75276384 9.91934871 -1.89443162
X -13.88792749 15.32623793 -0.00000684
X -9.95959314 9.91934492 -10.36656758
X -17.49134213 13.26098316 -16.04985064
X 4.45406546 17.49705917 1.89441938
X -13.03727668 10.36655767 -12.26099497
X -2.75276384 23.62755074 -6.13050572
X -10.81024395 14.87902329 -2.34164743
X -2.75276384 6.13049348 -3.78885712
X -6.35617849 8.74852134 -17.49706223
X -20.24410598 25.52197435 -14.15542893
X -13.03727668 15.60262754 -8.02492933
X -6.35617849 17.22066766 5.68327388
X -5.83044738 11.81377421 -5.68328685
X -16.64069133 3.06524674 -1.89442856
X -14.41365860 22.18033421 -12.70821384
X -8.58321122 25.52197435 -14.15542893
X -15.26430941 23.35116113 1.89441677
X -5.83044738 17.94426768 -9.47214397
X -8.05748011 22.45672761 -12.26100037
X -7.20682930 9.91935294 7.57770434
X -9.95959314 13.70819825 -12.70821005
X -9.43386203 11.53738081 -6.13050032
X -15.26430941 8.74852324 -13.26099425
X -12.18662587 3.06524296 -10.36656452
X -8.58321122 -0.44722265 -20.28591250
X -16.64069133 10.64294728 -20.28591745
X -7.20682930 11.36656146 -3.78885946
X -23.84752062 6.85409819 -8.47213902
X -22.47113870 14.87902139 -6.57771541
X -20.24410598 20.28590826 -9.91935861
X -6.35617849 7.30131283 -6.13049843
X 2.22703273 6.85409819 -8.47213902
X 3.07768354 19.39148466 -1.89443585
X -14.41365860 29.75804044 -18.39149880
X -10.81024395 21.00951720 -5.13050455
X -4.97979657 18.22065774 -16.49706645
X -3.60341465 1.17081935 -2.34164131
X -5.83044738 24.07476160 -12.26100109
X -5.83044738 14.15540866 -19.83870542
X -19.39345517 19.11508324 -20.28592123
X -10.81024395 8.74852981 1.44720969
X -14.41365860 -2.34164248 -3.78885334
X -4.97979657 20.56229977 -13.70821312
X -20.24410598 11.81377421 -5.68328685
X -21.62048790 19.83869551 -8.02493122
X -7.20682930 19.83869551 -8.02493122
X -26.07455335 23.62755074 -6.13050572
X -13.56300779 12.53738270 -1.89443279
X -10.81024395 19.56229977 -13.70821267
X -6.35617849 14.87901949 -10.81378338
X 0.00000000 3.78885523 1.89442550
X -21.62048790 25.96919088 -7.57772036
X -7.20682930 -2.34164815 -16.49705727
X -17.49134213 8.02491329 -20.28591628
X -7.20682930 9.91934871 -1.89443162
X -15.79004052 5.68327505 -14.60263366
X -1.37638192 10.36655577 -16.49706294
X -18.01707325 7.30131283 -6.13049843
X -5.83044738 8.02491898 -7.57771235
X -14.41365860 29.75804611 -5.68329486
X -18.86772405 12.26098506 -11.81378222
X -6.68109819 20.56230590 -0.00000918
X -8.58321122 21.73312146 -10.81378645
X -20.24410598 13.26098551 -10.81378266
X -2.75276384 16.04984642 3.78884722
X -14.41365860 13.70819781 -13.70821005
X -12.18662587 8.30131093 -10.36656685
X -13.03727668 17.94427046 -3.23607599
X -15.26430941 2.61802409 -22.18034106
X -4.97979657 29.03443807 -8.47214892
X -13.03727668 23.18033565 -9.47214631
X -0.52573111 15.32623413 -8.47214280
X -14.41365860 15.15541290 -10.36656991
X -8.05748011 11.09016382 -13.70820889
X -15.26430941 18.66787427 -9.91935789
X -9.95959314 15.15541479 -6.13050194
X -15.79004052 16.49705304 -11.81378411
X -5.83044738 8.02492132 -2.34164437
X -11.66089476 13.70819402 -22.18034601
X -21.09475678 20.56230400 -4.23607716
X -16.64069133 20.56230022 -12.70821312
X -17.49134213 17.04983839 -14.15542514
X -21.09475678 6.85409585 -13.70820700
X -13.88792749 11.53738081 -6.13050032
X -5.83044738 17.94426200 -22.18034790
X -9.43386203 16.77345068 -1.89443468
X 0.85065081 18.66788041 3.78884605
X -4.12914576 13.26098127 -20.28591862
X -2.75276384 9.91934448 -11.36656758
X -14.41365860 19.83869741 -3.78886324
X -6.35617849 18.66787049 -18.39149384
X -13.03727668 19.39148042 -11.36657181
X 3.07768354 15.60262375 -16.49706528
X -2.75276384 3.78885100 -7.57771046
X 0.85065081 7.30130904 -14.60263439
X -3.60341465 2.61803210 -4.23606915
X -10.81024395 4.95967035 -9.91935177
X -10.81024395 30.92886546 -8.02493617
X -24.69817143 11.81377231 -9.91935483
X -12.18662587 12.98459589 -2.78886018
X -14.41365860 8.47213596 -0.00000378
X -6.35617849 8.74851944 -21.73313020
X -7.20682930 6.13049771 5.68327884
X -7.20682930 11.36656190 -2.78885946
X -4.97979657 4.51245381 -16.49706033
X -13.03727668 24.07476583 -2.78886513
X -12.18662587 12.98458553 -25.96920007
X -15.26430941 6.40688310 -11.81377961
X -9.95959314 16.04984218 -5.68328874
X -7.20682930 7.57771046 3.78885100
X -8.58321122 11.81376852 -18.39149078
X -13.88792749 19.11508747 -10.81378528
X -14.41365860 16.04984642 3.78884722
X -7.20682930 13.70820817 9.47212983
X -8.58321122 1.89442172 -12.26099119
X -10.81024395 11.09016382 -13.70820889
X -18.86772405 19.83869596 -7.02493122
X -9.95959314 11.36655577 -16.49706339
X -7.20682930 3.78884911 -11.81377844
X -14.41365860 1.44720897 -10.36656380
X -11.66089476 15.15541479 -6.13050194
X -4.97979657 26.69279370 -16.49707024
X -3.60341465 13.43180440 -14.15542352
X -23.84752062 10.64295152 -10.81378149
X -14.41365860 8.47213218 -8.47213974
X -2.75276384 12.26098506 -11.81378222
X -19.39345517 12.98459165 -12.26099613
X -10.81024395 19.56229788 -17.94428065
X -4.45406546 17.49705348 -10.81378455
X -14.41365860 3.78885523 1.89442550
X -5.83044738 19.39148277 -6.13050383
X -12.18662587 4.51245760 -8.02492438
X -1.37638192 15.60262564 -12.26099730
X -18.01707325 11.09016616 -8.47214091
X -19.39345517 26.69279937 -3.78886630
X -6.68109819 20.56230211 -8.47214514
X -2.22703273 26.69279937 -3.78886630
X -21.09475678 9.19573643 -14.15542164
X -18.01707325 13.43180820 -5.68328757
X -2.75276384 13.70819781 -13.70821005
X -20.24410598 15.60262988 -2.78886135
X -10.81024395 0.27639151 -3.78885451
X -17.49134213 16.49705727 -2.34164815
X -3.60341465 19.56229977 -13.70821267
X -8.58321122 8.02491898 -7.57771235
X -17.16642244 19.83869362 -12.26099920
X -18.86772405 13.70820015 -8.47214208
X -3.60341465 17.22065729 -17.49706600
X -2.75276384 9.91934682 -6.13049960
X -9.95959314 16.04984028 -9.91935672
X 2.22703273 14.43180864 -4.68328802
X -20.24410598 21.73312335 -6.57771847
X -3.60341465 10.19573877 -8.91935410
X -9.43386203 18.22065774 -16.49706645
X 0.00000000 16.04983839 -14.15542469
X 0.00000000 3.78884956 -10.81377844
X -8.58321122 9.47213407 -4.23607221
X -20.24410598 15.60262375 -16.49706528
X -13.88792749 20.56230400 -4.23607716
X -7.20682930 22.18033989 -0.00000990
X -16.64069133 24.35115689 -7.57771964
X -17.49134213 24.07476583 -2.78886513
X -18.86772405 13.70819781 -13.70821005
X -12.18662587 12.98459165 -12.26099613
X -13.03727668 17.94426389 -17.94427992
X -18.01707325 1.17081557 -10.81377727
X -1.37638192 19.39148466 -1.89443585
X 3.07768354 14.15541100 -14.60263744
X -2.75276384 12.26098550 -10.81378221
X -10.81024395 8.74852602 -7.02492626
X -16.64069133 24.35115311 -16.04985560
X -13.56300779 4.95966846 -14.15541975
X -18.01707325 13.43180630 -9.91935555
X -14.41365860 25.96919322 -2.34165238
X -7.20682930 20.73311723 -20.28592195
X -4.97979657 10.64294918 -16.04984947
X -14.41365860 27.41639796 -22.18035213
X -7.20682930 12.26099119 1.89442172
X -17.16642244 12.26098316 -16.04985019
X -19.39345517 12.98459545 -3.78886018
X -7.20682930 19.83868939 -21.73313515
X -11.66089476 16.04984218 -5.68328874
X -9.95959314 12.26098316 -16.04985019
X -10.81024395 15.77344688 -10.36657019
X -12.18662587 12.98459545 -3.78886018
X -15.26430941 12.53737278 -24.07477268
X -2.75276384 14.60262564 -12.26099686
X -13.03727668 9.47213217 -8.47214018
X -7.73256041 10.64294728 -20.28591745
X -22.47113870 14.87902329 -2.34164743
X -21.09475678 18.22065774 -16.49706645
X -4.45406546 23.62754696 -14.60264168
X -21.62048790 25.96918710 -16.04985632
X -9.95959314 17.49705727 -2.34164860
X -6.35617849 17.22065774 -16.49706600
X -15.26430941 14.87902518 1.89442055
X -7.20682930 3.78884956 -10.81377844
X -12.18662587 0.72360237 -9.91934988
X -6.35617849 21.00951675 -6.13050455
X -13.88792749 10.64294728 -20.28591745
X -21.09475678 15.32623224 -12.70821077
X -10.81024395 14.87902752 7.13048853
X -12.18662587 11.53737891 -10.36656830
X -0.52573111 10.64294728 -20.28591745
X -1.37638192 11.81377231 -9.91935483
X -24.69817143 15.60262944 -3.78886135
X -14.41365860 17.49705348 -10.81378455
X -6.35617849 24.79836820 -12.70821501
X -2.75276384 6.13048780 -16.49706106
X -6.35617849 21.00951486 -10.36657253
X -8.58321122 9.47213596 -0.00000423
X -7.73256041 11.53738081 -6.13050032
X -7.20682930 23.62754696 -14.60264168
X -21.62048790 0.00000000 0.00000000
X -4.45406546 23.62754885 -10.36657370
X -21.62048790 29.75804044 -18.39149880
X -7.20682930 11.36655577 -16.49706339
X -7.20682930 13.70820394 -0.00000612
X -24.69817143 21.73312146 -10.81378645
X -4.97979657 0.72360426 -5.68328190
X -12.18662587 0.72359859 -18.39148583
X -28.30158608 16.77345068 -1.89443468
X -15.79004052 24.07476349 -8.02493311
X -8.58321122 5.68327082 -24.07476961
X -1.37638192 21.73311723 -20.28592240
X -3.60341465 12.53737701 -14.60263672
X -1.37638192 19.39148087 -10.36657181
X -13.88792749 22.90394648 -0.44722382
X -9.95959314 13.70820015 -8.47214208
X -10.81024395 18.66788041 3.78884605
X -11.66089476 16.04984028 -9.91935672
X -6.68109819 12.98459355 -8.02492816
X -18.01707325 8.74852747 -3.78885829
X -10.81024395 4.95967458 -0.44721581
X -10.81024395 16.32623793 -0.00000729
X -10.81024395 6.40688310 -11.81377961
X -16.64069133 16.77344499 -14.60263861
X -14.41365860 28.31082958 -12.26100298
X -8.58321122 17.94427614 9.47212794
X -7.20682930 16.04983650 -18.39149267
X 2.22703273 10.64295341 -6.57771351
X -16.64069133 16.77344922 -5.13050266
X -11.66089476 13.70820394 -0.00000612
X -15.79004052 17.94426812 -8.47214397
X -4.97979657 22.90393847 -18.39149573
X -16.64069133 9.19574445 3.78885028
X -13.03727668 17.04983650 -18.39149312
X -12.18662587 24.35115311 -16.04985560
X -18.86772405 9.91934682 -6.13049960
X -9.95959314 19.83869975 1.44720474
X -8.05748011 18.66787049 -18.39149384
X -13.03727668 15.60262564 -12.26099730
X -17.16642244 16.04984028 -9.91935672
X -4.97979657 11.53738270 -1.89443234
X -16.64069133 16.77344688 -10.36657064
X -18.01707325 18.66787427 -9.91935789
X -15.26430941 17.22066387 -2.78886207
X -7.20682930 13.70819970 -9.47214208
X -9.43386203 16.77344265 -19.83870659
X -13.03727668 11.81376430 -27.86362673
X -10.81024395 14.87901481 -21.28591934
X 0.00000000 22.18032998 -22.18034979
X -16.64069133 20.56229977 -13.70821312
X -1.37638192 13.26099119 1.89442127
X -8.58321122 8.02492132 -2.34164437
X -16.64069133 16.77344878 -6.13050266
X -28.30158608 12.98458976 -16.49706411
X -13.03727668 22.62754696 -14.60264123
X -3.60341465 8.74852792 -2.78885829
X -21.62048790 13.70820205 -4.23607410
X -6.35617849 4.95967035 -9.91935177
X -11.66089476 12.26098127 -20.28591817
X 0.85065081 21.00951865 -1.89443657
X -8.58321122 30.20526309 1.89441370
X -10.81024395 23.35115545 -10.81378717
X -0.52573111 9.19573643 -14.15542164
X -8.05748011 7.30131472 -1.89443045
X 2.22703273 26.69279370 -16.49707024
X -7.73256041 19.11508747 -10.81378528
X -9.95959314 8.47213596 -0.00000378
X -2.22703273 10.64295531 -2.34164554
X -14.41365860 -2.34164437 -8.02492132
X -8.05748011 11.09016426 -12.70820888
X -4.97979657 16.77344499 -14.60263861
X -13.03727668 19.39148087 -10.36657181
X 0.00000000 29.75804611 -5.68329486
X -13.56300779 18.66787238 -14.15542586
X -13.03727668 5.68328073 -1.89442973
X -8.58321122 7.13048780 -16.49706150
X -4.45406546 9.91934302 -14.60263555
X -9.95959314 16.04983650 -18.39149267
X -2.75276384 22.18033421 -12.70821384
X -21.09475678 10.64294918 -16.04984947
X -28.30158608 9.19573833 -9.91935366
X -18.01707325 16.32623224 -12.70821122
X -12.18662587 19.11508747 -10.81378528
X -4.12914576 13.26098696 -7.57771469
X -17.49134213 19.39148466 -1.89443585
X -4.12914576 19.39147898 -14.60263978
X -23.84752062 20.56230590 -0.00000918
X -6.35617849 11.09016192 -17.94427686
X -13.03727668 11.81376997 -15.15542281
X -18.86772405 21.28590826 -9.91935906
X -12.18662587 11.53737701 -14.60263627
X -13.03727668 22.62754885 -10.36657325
X -5.83044738 5.68328073 -1.89442973
X -2.75276384 11.36656146 -3.78885946
X -8.58321122 7.13049159 -8.02492555
X -21.62048790 7.57771046 3.78885100
X -8.58321122 8.02491943 -6.57771235
X -18.86772405 8.47213218 -8.47213974
X -11.66089476 7.57770244 -14.15542092
X -8.58321122 -0.44721698 -7.57770857
X -16.64069133 29.03443807 -8.47214892
X -14.41365860 11.36655767 -12.26099541
X -9.95959314 17.49705917 1.89441938
X -21.09475678 16.77344878 -6.13050266
X -0.52573111 16.77344688 -10.36657064
X -20.24410598 27.86361494 -14.60264357
X -15.79004052 1.89442361 -8.02492321
X -8.05748011 17.22066152 -8.02493005
X -10.81024395 17.22065774 -16.49706600
X -12.18662587 15.32623369 -9.47214280
X -10.81024395 21.90394415 -5.68329135
X -3.60341465 8.74852602 -7.02492626
X -15.79004052 9.47213596 -0.00000423
X -18.01707325 16.32623793 -0.00000729
X -13.03727668 17.94426812 -8.47214397
X -8.58321122 22.62755264 -1.89443730
X -2.75276384 13.70819825 -12.70821005
X -13.03727668 10.91934492 -10.36656802
X -10.81024395 27.14001068 -8.91936167
X -6.35617849 14.87902094 -7.57771541
X -22.47113870 8.74852178 -16.49706222
X -15.26430941 11.09016003 -22.18034484
X -23.84752062 19.11508702 -11.81378528
X -13.03727668 13.26098929 -2.34164671
X -16.64069133 15.32623793 -0.00000684
X -10.81024395 10.19573643 -14.15542208
X 0.00000000 18.39147664 -19.83870731
X -9.43386203 12.98458976 -16.49706411
X -13.03727668 27.86362061 -1.89443963
X -14.41365860 6.13049348 -3.78885712
X -21.62048790 6.13048970 -12.26099308
X -7.73256041 18.22066342 -3.78886252
X -11.33597506 21.73312146 -10.81378645
X -10.81024395 17.22066152 -8.02493005
X -4.97979657 3.06524674 -1.89442856
X -22.47113870 7.30131094 -10.36656641
X -10.81024395 18.66787472 -8.91935789
X -15.26430941 9.64295720 1.89442289
X -13.56300779 22.45673140 -3.78886441
X -6.35617849 4.95967224 -5.68328379
X -16.64069133 6.85410008 -4.23607104
X -22.47113870 14.87901904 -11.81378338
X -14.41365860 7.57770478 -8.91935293
X -12.18662587 8.30131472 -1.89443090
X -9.95959314 22.18033799 -4.23607788
X -2.75276384 19.83869741 -3.78886324
X -1.37638192 24.07476349 -8.02493311
X -22.47113870 12.53738270 -1.89443279
X -16.64069133 29.03443996 -4.23608094
X -10.28451284 14.15541289 -10.36656947
X -18.01707325 11.09016382 -13.70820889
X -22.47113870 14.87901526 -20.28591934
X -19.39345517 16.77344878 -6.13050266
X -4.97979657 15.32623413 -8.47214280
X 2.22703273 14.43180674 -8.91935599
X -16.64069133 16.77345068 -1.89443468
X -4.97979657 11.53737701 -14.60263627
X 2.22703273 19.11508324 -20.28592123
X -12.18662587 5.40688544 -6.57771118
X 0.85065081 14.87901904 -11.81378338
X -9.95959314 25.96919511 1.89441560
X -18.01707325 21.00950874 -24.07477646
X -15.79004052 4.23606798 -0.00000189
X -18.01707325 28.58721920 -20.28592547
X -2.22703273 9.19574022 -5.68328568
X -8.58321122 6.57771046 3.78885145
X -9.95959314 12.26098930 -2.34164626
X -2.75276384 8.47213596 -0.00000378
X -4.97979657 4.51245760 -8.02492438
X -8.58321122 30.20526120 -2.34165427
X -14.41365860 24.52197435 -14.15542848
X -23.84752062 22.90394414 -5.68329180
X -7.20682930 8.47213028 -12.70820772
X -8.58321122 4.23606798 -0.00000189
X -10.81024395 21.00951063 -19.83870848
X -11.33597506 15.60262944 -3.78886135
X -1.37638192 13.26098740 -6.57771469
X -9.43386203 19.11509126 -2.34164932
X -20.24410598 19.39148087 -10.36657181
X -17.16642244 6.13049159 -8.02492510
X -9.43386203 29.03444185 -0.00001296
X -4.97979657 25.24558662 -1.89443846
X -10.81024395 24.79836397 -22.18035096
X -9.43386203 21.45673140 -3.78886396
X -7.73256041 12.98458976 -16.49706411
X -13.03727668 6.57770857 -0.44721653
X -13.03727668 17.94427002 -4.23607599
X -6.35617849 22.45672761 -12.26100037
X -4.12914576 15.60262564 -12.26099730
X 6.68109819 9.19573833 -9.91935366
X -17.49134213 11.81377231 -9.91935483
X -10.81024395 29.48165460 -1.89444035
X -15.26430941 23.35115734 -6.57771919
X -14.41365860 6.13049582 1.44721086
X 3.07768354 14.15541289 -10.36656947
X -4.97979657 10.64295297 -7.57771352
X -10.81024395 14.87902094 -7.57771541
X -13.56300779 18.66787617 -5.68328991
X -16.64069133 8.30131283 -6.13049888
X -13.56300779 21.00951675 -6.13050455
X -14.41365860 23.62754273 -24.07477763
X -7.20682930 18.39148043 -11.36657136
X -7.73256041 9.19573833 -9.91935366
X -16.64069133 9.19573453 -18.39148961
X -9.43386203 20.56230022 -12.70821312
X -8.58321122 11.81377276 -8.91935482
X -10.81024395 17.22066766 5.68327388
X -15.26430941 11.09016382 -13.70820889
X -13.03727668 25.52197246 -18.39149691
X -26.07455335 6.13048780 -16.49706106
X -7.20682930 32.09968670 -6.13050950
X -11.66089476 6.13049159 -8.02492510
X -7.20682930 9.91934682 -6.13049960
X -10.81024395 4.95967269 -4.68328379
X -14.41365860 16.04983416 -23.62756065
X -10.81024395 10.19574445 3.78884983
X -16.64069133 18.22066342 -3.78886252
X -1.37638192 21.73312101 -11.81378645
X -13.03727668 10.36656569 5.68327695
X -24.69817143 10.36656146 -3.78885901
X -3.60341465 28.58722298 -11.81378951
X -3.60341465 14.87901904 -11.81378338
X -13.56300779 16.32623414 -8.47214325
X -5.83044738 1.89442172 -12.26099119
X -5.83044738 14.15541056 -15.60263745
X -18.86772405 6.13048780 -16.49706106
X -1.37638192 16.49705304 -11.81378411
X -8.05748011 14.87901904 -11.81378338
X -4.12914576 12.70820394 -0.00000567
X -14.41365860 -0.00000567 -12.70820394
X -12.18662587 6.85409774 -9.47213902
X -9.95959314 17.49705114 -16.04985253
X -11.66089476 13.70819781 -13.70821005
X -3.60341465 18.66787472 -8.91935789
X -10.81024395 11.09016192 -17.94427686
X -10.81024395 4.95966846 -14.15541975
X -22.47113870 17.22065963 -12.26099803
X -22.47113870 12.53737891 -10.36656874
X -3.60341465 14.87901526 -20.28591934
X -5.83044738 14.15541479 -6.13050149
X -15.26430941 16.32623603 -4.23607527
X -7.20682930 27.41639985 -17.94428416
X -12.18662587 16.77344454 -15.60263861
X -6.68109819 20.56230022 -12.70821312
X -9.95959314 16.04984073 -8.91935672
X -17.16642244 19.83869551 -8.02493122
X -14.41365860 19.83869785 -2.78886324
X -13.56300779 7.30131472 -1.89443045
X -9.95959314 23.62754885 -10.36657370
X -6.35617849 17.22066342 -3.78886207
X 0.00000000 13.70820205 -4.23607410
X -12.18662587 21.45672761 -12.26099992
X -18.01707325 7.30131094 -10.36656641
X -9.43386203 0.72359859 -18.39148583
X -22.47113870 8.74852368 -12.26099425
X -2.75276384 12.26098127 -20.28591817
X -7.73256041 22.90394459 -4.68329180
X -9.95959314 9.91934682 -6.13049960
X 3.07768354 15.60262754 -8.02492933
X -14.41365860 21.28590637 -14.15542704
X -13.03727668 24.07476160 -12.26100109
X -6.35617849 7.30131472 -1.89443045
X -7.73256041 19.11509126 -2.34164932
X -15.26430941 2.61802598 -17.94427309
X -6.68109819 16.77344878 -6.13050266
X -12.18662587 9.19574256 -0.44721770
X -3.60341465 7.30131094 -10.36656641
X -13.03727668 7.13048969 -12.26099352
X -16.64069133 14.43180440 -14.15542397
X -1.37638192 16.49704925 -20.28592006
X -4.97979657 0.72360048 -14.15541786
X -20.24410598 27.86362061 -1.89443963
X -21.09475678 11.53738081 -6.13050032
X -2.75276384 21.28590637 -14.15542704
X -13.88792749 19.11509316 1.89441865
X -21.62048790 11.36656569 5.68327650
X -12.18662587 18.22066342 -3.78886252
X -10.81024395 14.87902373 -1.34164743
X -10.81024395 29.48165082 -10.36657631
X -9.43386203 21.45672950 -8.02493194
X -12.18662587 19.11508936 -6.57771730
X -26.07455335 6.13049348 -3.78885712
X -0.52573111 19.11508936 -6.57771730
X -20.24410598 24.07476160 -12.26100109
X -13.03727668 21.73311912 -16.04985443
X -8.58321122 13.26098551 -10.81378266
X -18.86772405 18.39147898 -14.60263934
X -19.39345517 3.06524674 -1.89442856
X 4.45406546 12.26098127 -20.28591817
X -0.52573111 12.98458976 -16.49706411
X -3.60341465 11.09016572 -9.47214091
X -14.41365860 11.36655957 -8.02492744
X -7.20682930 27.41640363 -9.47214820
X -11.66089476 13.70820015 -8.47214208
X -13.03727668 18.83869741 -3.78886279
X -15.79004052 4.23606420 -8.47213785
X 0.00000000 7.57771046 3.78885100
X -18.01707325 27.14000645 -18.39149763
X -23.84752062 14.43181053 -0.44722004
X -19.39345517 3.06524296 -10.36656452
X -7.20682930 9.02492321 1.89442316
X -4.97979657 19.11508936 -6.57771730
X -2.22703273 10.64295152 -10.81378149
X -8.58321122 20.28591016 -5.68329063
X -10.81024395 21.00952099 3.34163141
X -8.58321122 15.60262330 -17.49706528
X -9.43386203 12.09016616 -8.47214135
X -18.01707325 10.19574256 -0.44721815
X -16.64069133 5.40688922 1.89442478
X -16.64069133 15.32623603 -4.23607482
X -13.03727668 15.60262798 -7.02492933
X -11.33597506 8.02491329 -20.28591628
X 0.00000000 29.75804422 -9.91936284
X -6.35617849 9.64295720 1.89442289
X -8.05748011 18.66788041 3.78884605
X -19.39345517 15.32622990 -17.94427875
X 0.00000000 17.49705917 1.89441938
X -9.43386203 16.77344499 -14.60263861
X -6.35617849 19.56230022 -12.70821267
X -5.83044738 19.39148087 -10.36657181
X 6.68109819 12.98459355 -8.02492816
X -10.81024395 28.58722487 -7.57772153
X -6.35617849 11.09016995 -0.00000495
X -14.41365860 11.36656146 -3.78885946
X -10.28451284 14.15541669 -1.89443351
X -6.35617849 6.40688310 -11.81377961
X -14.41365860 9.91934068 -19.83870353
X -9.95959314 9.91934871 -1.89443162
X -8.58321122 3.34163825 -5.68328307
X -7.20682930 9.02491753 -10.81378077
X -15.26430941 11.09016995 -0.00000495
X -12.18662587 20.56230166 -9.47214514
X -10.81024395 7.30131472 -1.89443045
X -24.69817143 17.94426812 -8.47214397
X -20.24410598 17.94426578 -13.70821195
X -9.95959314 15.15541669 -1.89443396
X -15.26430941 9.64295341 -6.57771307
X -13.03727668 15.60261952 -25.96920124
X -2.75276384 17.49705917 1.89441938
X -15.26430941 17.22066197 -7.02493005
X -18.86772405 19.83869173 -16.49706717
X -17.16642244 16.04984218 -5.68328874
X -16.64069133 14.43181053 -0.44722004
X -7.20682930 1.44720708 -14.60263178
X -13.56300779 13.43180440 -14.15542352
X -9.43386203 14.43180251 -18.39149195
X -15.26430941 13.98459166 -12.26099658
X -1.37638192 27.86362061 -1.89443963
X -9.43386203 20.56230400 -4.23607716
X -4.12914576 12.70819825 -12.70820960
X -4.97979657 14.43180864 -4.68328802
X -7.20682930 17.49705303 -11.81378456
X -0.52573111 6.85409774 -9.47213902
X -2.75276384 3.78884722 -16.04984642
X -22.47113870 14.87902518 1.89442055
X -12.18662587 6.85409819 -8.47213902
X -5.83044738 25.52197624 -9.91936095
X -15.79004052 27.86362061 -1.89443963
X -7.20682930 9.91933879 -24.07477151
X -17.16642244 9.91934871 -1.89443162
X -20.24410598 16.49705304 -11.81378411
X -3.60341465 24.79837009 -8.47214703
X -1.37638192 17.94426812 -8.47214397
X -11.66089476 6.13049348 -3.78885712
X -23.84752062 12.98458976 -16.49706411
X -16.64069133 4.51245949 -3.78885640
X -18.01707325 7.30131472 -1.89443045
X 4.45406546 9.91934492 -10.36656758
X -1.37638192 21.73312524 -2.34165049
X -1.37638192 17.94426623 -12.70821195
X -6.68109819 16.77344688 -10.36657064
X -7.20682930 20.73312291 -7.57771802
X -14.41365860 18.39148276 -6.13050338
X -18.01707325 18.66787851 -0.44722193
X -18.01707325 12.53738693 7.57770317
X -2.22703273 6.85410008 -4.23607104
X -9.43386203 29.03443996 -4.23608094
X -26.07455335 23.62754696 -14.60264168
X -8.05748011 21.00951675 -6.13050455
X -10.81024395 16.32622801 -22.18034718
X -13.88792749 15.32623224 -12.70821077
X -5.83044738 5.68327884 -6.13049771
X -8.58321122 4.23606231 -12.70820583
X -4.97979657 12.09016616 -8.47214135
X -18.01707325 16.32623414 -8.47214325
X -2.75276384 16.04984453 -0.44722076
X -18.86772405 16.04983650 -18.39149267
X -14.93938971 16.77344688 -10.36657064
X -6.35617849 15.77344499 -14.60263816
X -14.41365860 14.60262754 -8.02492888
X -10.81024395 22.45672572 -16.49706834
X -6.35617849 14.87902518 1.89442055
X -22.47113870 18.66787851 -0.44722193
X 0.85065081 11.09016003 -22.18034484
X 6.68109819 20.56230211 -8.47214514
X -4.97979657 12.09016805 -4.23607338
X -5.83044738 9.47213028 -12.70820816
X -15.26430941 21.00951486 -10.36657253
X -21.09475678 10.64295107 -11.81378150
X -8.58321122 -0.44722076 -16.04984453
X -6.35617849 14.87902139 -6.57771541
X -26.07455335 19.83869551 -8.02493122
X -19.39345517 6.85410008 -4.23607104
X -26.07455335 13.70820205 -4.23607410
X -15.79004052 21.73311723 -20.28592240
X -6.35617849 23.35116113 1.89441677
X -9.95959314 8.47213407 -4.23607176
X -20.24410598 14.15540677 -24.07477340
X -10.81024395 18.66787004 -19.39149384
X -8.05748011 21.00951297 -14.60264051
X -9.43386203 12.98458932 -17.49706412
X -9.95959314 12.26098740 -6.57771424
X -10.81024395 8.74852747 -3.78885829
X -10.81024395 4.95967080 -8.91935177
X -11.66089476 16.04984453 -0.44722076
X -15.79004052 11.81377231 -9.91935483
X -13.03727668 19.39148277 -6.13050383
X -16.64069133 18.22065774 -16.49706645
X -9.95959314 12.26098696 -7.57771424
X -13.03727668 21.73312524 -2.34165049
X -9.43386203 6.85409585 -13.70820700
X -4.45406546 16.04983839 -14.15542469
X -18.01707325 23.35115689 -7.57771919
X -15.26430941 16.32623793 -0.00000729
X -7.20682930 7.57770434 -9.91935294
X -4.97979657 17.66787617 -5.68328946
X -15.79004052 10.36655957 -8.02492699
X -26.07455335 6.13048970 -12.26099308
X -13.03727668 23.18033376 -13.70821429
X -3.60341465 22.45672950 -8.02493239
X -10.81024395 23.35116113 1.89441677
X -17.16642244 19.83869741 -3.78886324
X -8.58321122 10.36656380 1.44720897
X -4.97979657 22.90394036 -14.15542776
X -15.26430941 17.22065774 -16.49706600
X -12.18662587 22.90393847 -18.39149573
X -20.24410598 25.52197813 -5.68329297
X -9.95959314 9.91934448 -11.36656758
X -6.35617849 21.00952288 7.57769937
X -24.69817143 19.39148277 -6.13050383
X -19.39345517 22.90394036 -14.15542776
X -14.93938971 16.77344499 -14.60263861
X 3.07768354 21.73312146 -10.81378645
X -3.60341465 13.43180820 -5.68328757
X -13.56300779 14.87901715 -16.04985136
X -4.97979657 4.51245949 -3.78885640
X -20.24410598 4.23606420 -8.47213785
X -13.03727668 15.60263367 5.68327461
X -16.64069133 10.64295531 -2.34164554
X -21.62048790 11.36656190 -2.78885946
X -7.20682930 9.91934916 -0.89443162
X -5.83044738 5.68327505 -14.60263366
X -2.75276384 17.49705114 -16.04985253
X -3.60341465 17.22066152 -8.02493005
X 0.85065081 17.22066152 -8.02493005
X -15.26430941 18.66787851 -0.44722193
X -4.97979657 15.32623603 -4.23607482
X -4.12914576 24.07476961 5.68327082
X -10.81024395 24.79836775 -13.70821501
X -17.49134213 12.70820394 -0.00000567
X -17.49134213 14.15541669 -1.89443351
X -10.81024395 0.27638773 -12.26099047
X -10.81024395 -1.17082124 -1.89442667
X -21.62048790 23.62755263 -1.89443774
X -4.12914576 8.02491329 -20.28591628
X -2.22703273 16.77344499 -14.60263861
X -9.95959314 16.04984263 -4.68328874
X -8.58321122 16.49705537 -6.57771613
X -2.22703273 15.32623180 -13.70821078
X -10.81024395 1.17082124 1.89442667
X -10.81024395 8.74853170 5.68327767
X -10.81024395 8.74852368 -12.26099425
X -7.73256041 6.85409585 -13.70820700
X -18.01707325 14.87902518 1.89442055
X -9.43386203 10.64294918 -16.04984947
X -8.58321122 17.94426623 -12.70821195
X -4.12914576 17.94426812 -8.47214397
X 0.85065081 14.87901715 -16.04985136
X -14.41365860 19.83869173 -16.49706717
X -10.81024395 4.06524674 -1.89442901
X -9.43386203 15.32623793 -0.00000684
X -18.86772405 19.83869975 1.44720474
X -0.52573111 12.98459165 -12.26099613
X -10.28451284 19.39148466 -1.89443585
X -9.43386203 4.51245949 -3.78885640
X -9.43386203 22.90394838 3.78884416
X -3.60341465 8.74853170 5.68327767
X -1.37638192 10.36656146 -3.78885901
X -20.24410598 19.39147898 -14.60263978
X -21.62048790 17.49705348 -10.81378455
X -13.03727668 3.34163257 -18.39148700
X -14.41365860 16.04983839 -14.15542469
X -0.52573111 10.64294918 -16.04984947
X -11.66089476 21.28590448 -18.39149501
X -2.75276384 12.26098696 -7.57771424
X -4.97979657 10.64295531 -2.34164554
X -15.79004052 15.60262798 -7.02492933
X -5.83044738 13.26098929 -2.34164671
X -20.24410598 17.94426623 -12.70821195
X -13.88792749 10.64295107 -11.81378150
X -14.41365860 16.04983795 -15.15542470
X -16.64069133 11.53738081 -6.13050032
X -22.47113870 7.30131472 -1.89443045
X -6.35617849 15.77345067 -1.89443423
X -15.26430941 24.79837198 -4.23607905
X -14.41365860 22.18033376 -13.70821384
X -11.66089476 9.91934871 -1.89443162
X -10.81024395 3.51246372 5.68328001
X -8.58321122 13.26098740 -6.57771469
X -8.58321122 16.49705493 -7.57771613
X -13.03727668 13.26098740 -6.57771469
X -7.20682930 11.36656569 5.68327650
X -18.86772405 12.26098316 -16.04985019
X -8.58321122 24.07476394 -7.02493311
X -15.79004052 8.02492132 -2.34164437
X -10.81024395 21.00952288 7.57769937
X -10.81024395 22.45672338 -21.73313632
X -5.83044738 27.86361683 -10.36657559
X -15.26430941 13.98458976 -16.49706456
X -12.18662587 19.11509126 -2.34164932
X -8.58321122 15.60262141 -21.73313326
X -10.81024395 4.95967224 -5.68328379
X -8.58321122 18.83869741 -3.78886279
X -3.60341465 24.79836820 -12.70821501
X -21.62048790 23.62754696 -14.60264168
X 0.00000000 12.26098506 -11.81378222
X -17.49134213 24.07476772 1.44720285
X -21.62048790 3.78885334 -2.34164248
X -7.20682930 13.70819781 -13.70821005
X -15.26430941 13.98459355 -8.02492860
X -11.66089476 15.15541290 -10.36656991
X -2.22703273 26.69279559 -12.26100226
X -12.18662587 16.77344688 -10.36657064
X -12.18662587 22.90394648 -0.44722382
X -10.81024395 6.40687931 -20.28591556
X -11.33597506 21.73312714 1.89441749
X -4.97979657 24.35115500 -11.81378762
X -15.79004052 9.47213407 -4.23607221
X -13.03727668 5.68327505 -14.60263366
X -13.88792749 20.56230590 -0.00000918
X -13.03727668 9.47212794 -17.94427614
X -8.58321122 14.15541903 3.34163447
X -10.28451284 10.36656146 -3.78885901
X -6.68109819 9.19573453 -18.39148961
X -17.49134213 14.15541100 -14.60263744
X -6.35617849 7.30131094 -10.36656641
X -9.43386203 16.77344688 -10.36657064
X -11.66089476 9.91934448 -11.36656758
X -20.24410598 8.02491519 -16.04984831
X -15.26430941 18.66787661 -4.68328991
X -13.03727668 10.36656191 -2.78885901
X -19.39345517 3.06524107 -14.60263250
X 4.45406546 16.04983839 -14.15542469
X -24.69817143 8.02491519 -16.04984831
X -13.03727668 20.28591250 -0.44722265
X -13.03727668 21.73311723 -20.28592240
X -4.97979657 3.06524107 -14.60263250
X -13.88792749 18.22066342 -3.78886252
X -15.26430941 27.14001635 3.78884226
X -28.30158608 9.19573643 -14.15542164
X -6.35617849 19.56230211 -8.47214469
X -21.62048790 29.75804422 -9.91936284
X -9.95959314 7.57770434 -9.91935294
X -19.39345517 16.77344688 -10.36657064
X 0.85065081 22.45673140 -3.78886441
X -15.79004052 1.89442550 -3.78885523
X -11.66089476 3.78885100 -7.57771046
X -10.28451284 11.81377231 -9.91935483
X -8.58321122 13.26098929 -2.34164671
X -21.62048790 12.26098506 -11.81378222
X -10.28451284 15.60262754 -8.02492933
X -8.58321122 5.68327650 -11.36656569
X -1.37638192 17.94427192 -0.00000801
X -10.81024395 2.61802976 -9.47213713
X -5.83044738 8.02491519 -16.04984831
X -10.81024395 15.77344878 -6.13050221
X -4.97979657 0.72359859 -18.39148583
X -3.60341465 30.92886546 -8.02493617
X -15.26430941 18.66787472 -8.91935789
X -7.20682930 23.62754840 -11.36657370
X -16.64069133 6.85409585 -13.70820700
X -14.41365860 15.15541669 -1.89443396
X -4.97979657 26.69279748 -8.02493428
X -4.97979657 21.45672572 -16.49706790
X -13.88792749 9.19574022 -5.68328568
X -8.58321122 20.28590637 -14.15542659
X 0.85065081 21.00951486 -10.36657253
X -12.18662587 16.77344922 -5.13050266
X 0.00000000 19.83869551 -8.02493122
X -15.26430941 4.95966846 -14.15541975
X -9.43386203 9.19573453 -18.39148961
X -2.75276384 15.15541479 -6.13050194
X -8.58321122 11.81377041 -14.15542280
X -15.26430941 16.32623414 -8.47214325
X -4.45406546 6.13048970 -12.26099308
X -13.88792749 19.11508936 -6.57771730
X 6.68109819 16.77345068 -1.89443468
X 2.22703273 9.19573643 -14.15542164
X -11.66089476 19.83869975 1.44720474
X -13.03727668 1.89442172 -12.26099119
X -0.52573111 22.90394838 3.78884416
X -13.03727668 24.07476538 -3.78886513
X -10.81024395 21.00951865 -1.89443657
X -4.45406546 19.83869551 -8.02493122
X -2.22703273 3.06524107 -14.60263250
X -18.01707325 12.53738270 -1.89443279
X -10.81024395 14.87902940 11.36655650
X -15.79004052 20.28591016 -5.68329063
X -4.97979657 16.77344265 -19.83870659
X -18.01707325 30.92886357 -12.26100415
X -18.01707325 19.56229788 -17.94428065
X -7.20682930 13.70819402 -22.18034601
X -15.79004052 17.94427192 -0.00000801
X -15.26430941 10.19574022 -5.68328613
X -19.39345517 26.69279559 -12.26100226
X -8.58321122 1.89441983 -16.49705917
X 0.85065081 16.32623603 -4.23607527
X -4.97979657 12.98459355 -8.02492816
X -10.81024395 3.51245994 -2.78885595
X -9.43386203 5.40688544 -6.57771118
X -0.52573111 14.43180630 -9.91935599
X -14.41365860 3.78884532 -20.28591440
X 4.45406546 17.49705348 -10.81378455
X -22.47113870 22.45672572 -16.49706834
X -17.16642244 9.91934302 -14.60263555
X -18.01707325 24.79836964 -9.47214703
X -13.03727668 13.26098696 -7.57771469
X -16.64069133 19.11508747 -10.81378528
X -9.43386203 6.85409774 -9.47213902
X -18.86772405 21.28591016 -5.68329108
X -13.88792749 14.43180251 -18.39149195
X -12.18662587 18.22065774 -16.49706645
X -24.69817143 17.94427002 -4.23607599
X -6.35617849 16.32623414 -8.47214325
X -7.20682930 23.62754885 -10.36657370
X -18.86772405 14.60262944 -3.78886090
X -7.20682930 18.39147475 -24.07477529
X -2.22703273 22.90393847 -18.39149573
X -9.95959314 12.26098506 -11.81378222
X -14.41365860 9.91934448 -11.36656758
X -16.64069133 15.32622990 -17.94427875
X -20.24410598 16.49705114 -16.04985208
X 3.07768354 17.94426812 -8.47214397
X -4.12914576 9.47212983 -13.70820817
X -18.01707325 21.00951252 -15.60264051
X -13.88792749 10.64295297 -7.57771352
X -6.35617849 12.53737701 -14.60263672
X 4.45406546 19.83869741 -3.78886324
X -14.41365860 6.13048970 -12.26099308
X -3.60341465 16.32623793 -0.00000729
X -7.20682930 21.28590637 -14.15542704
X -13.03727668 20.28590871 -8.91935861
X -18.86772405 15.15541100 -14.60263789
X -19.39345517 10.64295720 1.89442244
X -15.26430941 6.40688120 -16.04984759
X -9.43386203 19.11509316 1.89441865
X -11.33597506 17.94427002 -4.23607599
X -2.75276384 11.36655957 -8.02492744
X -9.95959314 8.47213028 -12.70820772
X -11.66089476 21.28591016 -5.68329108
X 3.07768354 21.73312524 -2.34165049
X -18.01707325 21.00951865 -1.89443657
X -20.24410598 17.94426200 -22.18034790
X -14.93938971 9.19573453 -18.39148961
X -15.26430941 22.45672761 -12.26100037
X -24.69817143 14.15541289 -10.36656947
X -23.84752062 16.77344499 -14.60263861
X -10.81024395 14.87901715 -16.04985136
X -18.86772405 12.26098696 -7.57771424
X -20.24410598 11.81377231 -9.91935483
X -13.03727668 9.47212604 -22.18034412
X -6.35617849 8.74852324 -13.26099425
X -13.56300779 7.30131094 -10.36656641
X -22.47113870 11.09016382 -13.70820889
X -19.39345517 20.56230400 -4.23607716
X -21.09475678 6.85409205 -22.18034295
X -14.41365860 24.52197813 -5.68329252
X -13.56300779 17.22066152 -8.02493005
X -4.45406546 13.70820015 -8.47214208
X -8.58321122 22.62755074 -6.13050527
X -13.03727668 10.91934871 -1.89443207
X -2.75276384 17.49705727 -2.34164860
X -15.79004052 8.02491519 -16.04984831
X -18.01707325 17.22065540 -21.73313398
X -11.66089476 17.49705917 1.89441938
X -4.12914576 5.68327082 -24.07476961
X -13.88792749 16.77344878 -6.13050266
X -7.20682930 7.57770857 -0.44721698
X 2.22703273 16.77344688 -10.36657064
X -15.26430941 2.61802787 -13.70820511
X -7.20682930 17.49704925 -20.28592051
X -17.49134213 15.60262944 -3.78886135
X -3.60341465 17.22065919 -13.26099803
X -17.49134213 24.07476394 -7.02493311
X -15.26430941 17.22066152 -8.02493005
X -8.05748011 17.22065774 -16.49706600
X -18.01707325 6.40688544 -6.57771163
X -8.58321122 15.60263177 1.44720663
X -1.37638192 25.52197624 -9.91936095
X -4.97979657 14.43180820 -5.68328802
X -23.84752062 9.19574022 -5.68328568
X -16.64069133 10.64295720 1.89442244
X -2.75276384 22.18033989 -0.00000990
X -13.03727668 13.26098316 -16.04985064
X -2.75276384 11.36655577 -16.49706339
X -4.12914576 14.15541289 -10.36656947
X -21.62048790 13.70820015 -8.47214208
X -10.81024395 24.79837387 -0.00001107
X -15.26430941 21.00951720 -5.13050455
X -9.95959314 9.91934302 -14.60263555
X 2.22703273 22.90394414 -5.68329180
X -10.81024395 4.95966656 -18.39148773
X -13.88792749 22.90394270 -8.91935978
X -24.69817143 10.36655767 -12.26099497
X -8.58321122 10.91934871 -1.89443207
X -15.79004052 27.86361872 -6.13050761
X -8.58321122 21.73312290 -7.57771847
X -12.18662587 18.22066153 -8.02493050
X -8.58321122 14.15541289 -10.36656947
X -13.56300779 11.09016003 -22.18034484
X -10.81024395 18.66787193 -15.15542587
X -12.18662587 9.19573643 -14.15542164
X -23.84752062 12.98459355 -8.02492816
X 0.85065081 22.45672761 -12.26100037
X -22.47113870 24.79836820 -12.70821501
X -2.22703273 3.06524485 -6.13049654
X -7.20682930 24.52197435 -14.15542848
X -3.60341465 11.09016616 -8.47214091
X -7.20682930 6.13049159 -8.02492510
X -7.73256041 22.90394270 -8.91935978
X -5.83044738 24.07476349 -8.02493311
X -26.07455335 12.26098696 -7.57771424
X -20.24410598 11.81377041 -14.15542280
X -18.86772405 7.57770434 -9.91935294
X -3.60341465 12.53738504 3.34163519
X -15.26430941 18.66787049 -18.39149384
X 3.07768354 17.94427002 -4.23607599
X -10.81024395 33.27050605 -8.47215081
X -11.66089476 12.26098930 -2.34164626
X -9.43386203 11.53737701 -14.60263627
X -18.01707325 19.56230167 -9.47214469
X -9.43386203 15.32623369 -9.47214280
X -18.86772405 21.28590448 -18.39149501
X -16.64069133 25.24558662 -1.89443846
X -19.39345517 22.90393847 -18.39149573
X -2.75276384 9.91934492 -10.36656758
X -6.35617849 12.53737846 -11.36656875
X -14.41365860 19.83869362 -12.26099920
X -17.16642244 13.70820015 -8.47214208
X -9.43386203 16.77344878 -6.13050266
X -2.75276384 19.83869551 -8.02493122
X -18.01707325 4.95967035 -9.91935177
X -13.88792749 9.19573833 -9.91935366
X -4.97979657 21.45673140 -3.78886396
X -18.86772405 23.62755074 -6.13050572
X -10.81024395 1.17081935 -2.34164131
X -12.18662587 29.03443996 -4.23608094
X -10.81024395 13.98459166 -12.26099658
X -15.26430941 23.35115545 -10.81378717
X -13.03727668 11.81377465 -4.68328685
X -23.84752062 20.56230211 -8.47214514
X -22.47113870 11.09016806 -4.23607293
X -18.01707325 24.79836775 -13.70821501
X -9.95959314 19.83869362 -12.26099920
X -1.37638192 15.60262988 -2.78886135
X -8.05748011 24.79837009 -8.47214703
X -18.01707325 13.43180440 -14.15542352
X -8.58321122 11.81377421 -5.68328685
X -13.56300779 14.87902139 -6.57771541
X -17.16642244 12.26098696 -7.57771424
X -10.81024395 10.19573877 -8.91935410
X 0.85065081 24.79836820 -12.70821501
X 0.00000000 25.96918521 -20.28592430
X -11.33597506 14.15541289 -10.36656947
X -11.66089476 25.96918944 -10.81378834
X -4.45406546 17.49705727 -2.34164860
X -20.24410598 1.89442550 -3.78885523
X -4.97979657 19.11509316 1.89441865
X -21.62048790 18.39148043 -11.36657136
X -9.43386203 14.43180440 -14.15542397
X -18.01707325 4.95967080 -8.91935177
X -10.81024395 7.85409629 -12.70820744
X -4.97979657 16.77344076 -24.07477457
X -15.79004052 27.86361683 -10.36657559
X -8.05748011 16.32623414 -8.47214325
X -7.73256041 6.85409395 -17.94427498
X -8.58321122 13.26099119 1.89442127
X -8.58321122 8.02492321 1.89442361
X -13.03727668 18.83869173 -16.49706673
X -1.37638192 8.02491753 -10.81378032
X -17.49134213 17.94427192 -0.00000801
X -15.79004052 14.15541289 -10.36656947
X -18.86772405 11.36655577 -16.49706339
X -10.28451284 15.60262375 -16.49706528
X 2.22703273 12.98459355 -8.02492816
X 4.45406546 19.83869551 -8.02493122
X -13.56300779 21.00951865 -1.89443657
X 0.00000000 23.62755074 -6.13050572
X -10.81024395 3.51245805 -7.02492393
X -21.62048790 17.49705537 -6.57771658
X 0.85065081 18.66787472 -8.91935789
X -23.84752062 6.85409629 -12.70820699
X -23.84752062 20.56230022 -12.70821312
X -10.81024395 2.61802598 -17.94427309
X -23.84752062 15.32622801 -22.18034673
X -4.97979657 29.03444185 -0.00001296
X -8.05748011 18.66787472 -8.91935789
X -18.01707325 4.95967269 -4.68328379
X -12.18662587 10.64295107 -11.81378150
X -6.68109819 12.98459545 -3.78886018
X 2.22703273 9.19574022 -5.68328568
X -24.69817143 10.36655577 -16.49706294
X -11.33597506 21.73312524 -2.34165049
X -6.35617849 21.00951909 -0.89443657
X -13.88792749 12.98459165 -12.26099613
X -2.75276384 19.83870165 5.68327271
X -10.28451284 21.73312524 -2.34165049
X -7.20682930 18.39148466 -1.89443540
X -1.37638192 4.23606231 -12.70820583
X 4.45406546 6.13049159 -8.02492510
X -13.03727668 15.60262988 -2.78886135
X -20.24410598 15.60263367 5.68327461
X 0.85065081 8.74852178 -16.49706222
X -13.56300779 11.09016995 -0.00000495
X -8.58321122 18.83869552 -8.02493077
X -9.95959314 3.78885100 -7.57771046
X -11.66089476 15.15541669 -1.89443396
X -8.05748011 13.43180251 -18.39149150
X -18.86772405 16.04984218 -5.68328874
X -2.75276384 16.04984263 -4.68328874
X -21.62048790 23.62754885 -10.36657370
X -14.41365860 32.09968859 -1.89444152
X -10.81024395 2.61802409 -22.18034106
X -4.12914576 8.02491709 -11.81378033
X -13.03727668 4.23606420 -8.47213785
X -15.26430941 11.09016806 -4.23607293
X -21.09475678 6.85409395 -17.94427498
X -7.20682930 16.04983605 -19.39149267
X -9.43386203 3.06524485 -6.13049654
X -28.30158608 20.56230400 -4.23607716
X -24.69817143 17.94426623 -12.70821195
X -11.66089476 7.57770434 -9.91935294
X -6.35617849 22.45673140 -3.78886441
X -22.47113870 4.95966846 -14.15541975
X -21.62048790 13.70820394 -0.00000612
X -4.97979657 15.32623180 -13.70821078
X 0.85065081 18.66787049 -18.39149384
X -21.62048790 7.57770478 -8.91935293
X -12.18662587 22.90394414 -5.68329180
X -16.64069133 9.19573643 -14.15542164
X -5.83044738 19.39147898 -14.60263978
X -10.81024395 21.00951252 -15.60264051
X -9.95959314 7.57770244 -14.15542092
X -16.64069133 0.72360237 -9.91934988
X 2.22703273 6.85409629 -12.70820699
X -18.86772405 17.49704925 -20.28592051
X -9.43386203 12.98458553 -25.96920007
X -23.84752062 20.56230400 -4.23607716
X -11.33597506 8.02491898 -7.57771235
X 2.22703273 3.06524674 -1.89442856
X -26.07455335 16.04984218 -5.68328874
X -9.43386203 14.43180864 -4.68328802
X -16.64069133 12.98458553 -25.96920007
X -6.35617849 13.98459166 -12.26099658
X 0.00000000 11.36656380 1.44720852
X -12.18662587 25.24558284 -10.36657442
X -13.03727668 9.47213596 -0.00000423
X 2.22703273 15.32623180 -13.70821078
X -10.81024395 9.64295341 -6.57771307
X -10.81024395 1.17081746 -6.57770929
X -6.35617849 24.79837387 -0.00001107
X -22.47113870 11.09016003 -22.18034484
X -4.12914576 16.49705348 -10.81378411
X -10.81024395 14.87901904 -11.81378338
X -18.01707325 -1.17082124 -1.89442667
X -5.83044738 14.15541100 -14.60263744
X -22.47113870 22.45672761 -12.26100037
X -13.03727668 22.62755074 -6.13050527
X -4.45406546 19.83869741 -3.78886324
X -0.52573111 9.19574022 -5.68328568
X -1.37638192 9.47213596 -0.00000423
X -6.35617849 14.87901904 -11.81378338
X -17.49134213 9.47212604 -22.18034412
X -13.03727668 15.60262141 -21.73313326
X -3.60341465 10.19574066 -4.68328612
X -20.24410598 10.36655577 -16.49706294
X -8.58321122 21.73311912 -16.04985443
X -3.60341465 14.87902329 -2.34164743
X -7.73256041 15.32623224 -12.70821077
X -13.88792749 9.19573643 -14.15542164
X -15.26430941 21.00952099 3.34163141
X -1.37638192 11.81377276 -8.91935482
X -14.41365860 12.26098506 -11.81378222
X 0.00000000 22.18033565 -9.47214586
X -14.41365860 23.62754651 -15.60264168
X -15.79004052 15.60262754 -8.02492933
X 3.07768354 21.73312714 1.89441749
X -9.43386203 18.22066342 -3.78886252
X -17.49134213 10.36656146 -3.78885901
X -3.60341465 18.66787049 -18.39149384
X -16.64069133 3.06524107 -14.60263250
X -5.83044738 17.94426623 -12.70821195
X -15.79004052 20.28590826 -9.91935861
X -13.03727668 5.68327650 -11.36656569
X -10.81024395 3.51246183 1.44721203
X -20.24410598 4.23606609 -4.23606987
X -16.64069133 12.09016995 -0.00000540
X -13.88792749 18.22066153 -8.02493050
X -8.05748011 11.09016806 -4.23607293
X -10.81024395 4.06524485 -6.13049699
X -4.97979657 25.24558095 -14.60264240
X -5.83044738 21.73311723 -20.28592240
X -7.20682930 6.13048970 -12.26099308
X -19.39345517 6.85409819 -8.47213902
X -10.81024395 -1.17082313 -6.13049465
X -15.79004052 25.52197813 -5.68329297
X -21.09475678 20.56230211 -8.47214514
X -8.05748011 4.95967224 -5.68328379
X -12.18662587 22.90394270 -8.91935978
X -15.79004052 21.73312714 1.89441749
X -4.97979657 12.98459545 -3.78886018
X -8.58321122 10.36655767 -12.26099497
X -4.97979657 24.35115311 -16.04985560
X -7.20682930 29.75804611 -5.68329486
X -17.49134213 8.02491519 -16.04984831
X -12.18662587 16.77345068 -1.89443468
X 0.00000000 7.57770478 -8.91935293
X -20.24410598 21.73311912 -16.04985443
X -9.43386203 22.90394036 -14.15542776
X -13.03727668 11.81376808 -19.39149079
X -22.47113870 4.95966656 -18.39148773
X -16.64069133 24.35115122 -20.28592357
X -3.60341465 17.22065963 -12.26099803
X -21.09475678 12.98458976 -16.49706411
X -11.66089476 9.91934682 -6.13049960
X -15.79004052 13.26098740 -6.57771469
X -15.26430941 14.87901526 -20.28591934
X -16.64069133 22.90394648 -0.44722382
X -20.24410598 17.94426389 -17.94427992
X -14.41365860 28.31083147 -8.02493500
X -14.41365860 17.49705537 -6.57771658
X -10.81024395 25.69279559 -12.26100181
X -4.45406546 9.91934492 -10.36656758
X -10.81024395 33.27050983 -0.00001486
X -17.16642244 9.91934682 -6.13049960
X -8.58321122 5.68327695 -10.36656569
X -0.52573111 6.85409585 -13.70820700
X -12.18662587 9.19574067 -4.68328568
X -0.52573111 22.90394459 -4.68329180
X -6.35617849 19.56230400 -4.23607671
X -13.03727668 13.26098127 -20.28591862
X -9.43386203 10.64295107 -11.81378150
X -7.20682930 28.31083147 -8.02493500
X -4.12914576 17.04984218 -5.68328919
X -16.64069133 19.11508936 -6.57771730
X -11.66089476 22.18033610 -8.47214586
X -21.09475678 11.53737701 -14.60263627
X -14.41365860 9.91934302 -14.60263555
X 0.85065081 22.45672572 -16.49706834
X -2.75276384 22.18033799 -4.23607788
X -9.95959314 11.36655767 -12.26099541
X -1.37638192 15.60262798 -7.02492933
X -15.79004052 10.36656146 -3.78885901
X -16.64069133 21.45672572 -16.49706790
X -10.81024395 8.74851756 -25.96919817
X -15.26430941 6.40687931 -20.28591556
X -16.64069133 16.77345301 3.34163330
X -15.26430941 12.53738270 -1.89443279
X 3.07768354 21.73312335 -6.57771847
X 2.22703273 19.11508892 -7.57771730
X -14.41365860 17.49705114 -16.04985253
X -15.79004052 17.94426578 -13.70821195
X -12.18662587 5.40688733 -2.34164320
X 0.00000000 7.57770857 -0.44721698
X -4.97979657 5.40688544 -6.57771118
X -9.95959314 6.13048780 -16.49706106
X -4.97979657 9.19574022 -5.68328568
X -18.01707325 24.79836586 -17.94428299
X -8.58321122 13.26098127 -20.28591862
X -14.41365860 18.39148466 -1.89443540
X -8.58321122 15.60262375 -16.49706528
X -3.60341465 1.17081746 -6.57770929
X 4.45406546 19.83869173 -16.49706717
X -21.62048790 9.91934871 -1.89443162
X -9.43386203 8.30130904 -14.60263483
X -17.16642244 6.13048970 -12.26099308
X -18.86772405 12.26098740 -6.57771424
X -26.07455335 16.04983650 -18.39149267
X -14.41365860 12.26098316 -16.04985019
X -13.56300779 14.87901904 -11.81378338
X -20.24410598 11.81377844 3.78884911
X -16.64069133 19.11508702 -11.81378528
X -7.20682930 13.70820205 -4.23607410
X -16.64069133 19.11508513 -16.04985325
X -18.01707325 -1.17082691 -14.60263061
X -4.97979657 9.19573643 -14.15542164
X -0.00000000 -0.00000567 -12.70820394
X -17.49134213 9.47212983 -13.70820817
X 6.68109819 20.56230400 -4.23607716
X -11.66089476 17.49705348 -10.81378455
X -26.07455335 13.70820394 -0.00000612
X -14.41365860 7.57771046 3.78885100
X -22.47113870 8.74852747 -3.78885829
X -13.56300779 11.09016616 -8.47214091
X -11.33597506 21.73312335 -6.57771847
X -23.84752062 22.90394036 -14.15542776
X -15.26430941 16.32622990 -17.94427920
X -4.97979657 3.06524485 -6.13049654
X -19.39345517 9.19574022 -5.68328568
X -2.22703273 12.98459165 -12.26099613
X -18.01707325 12.53737891 -10.36656874
X -14.41365860 16.04983605 -19.39149267
X -13.03727668 5.68327082 -24.07476961
X -23.84752062 26.69279559 -12.26100226
X -16.64069133 17.66787238 -14.15542542
X -21.09475678 15.32623413 -8.47214280
X -10.81024395 7.30131517 -0.89443045
X -13.03727668 21.73312335 -6.57771847
X -3.60341465 30.92886357 -12.26100415
X -12.18662587 29.03443618 -12.70821690
X -4.12914576 15.60262944 -3.78886135
X -20.24410598 14.15540866 -19.83870542
X -14.41365860 7.57770434 -9.91935294
X -10.81024395 10.19573453 -18.39149006
X 0.00000000 11.36656569 5.68327650
X -9.43386203 20.56230211 -8.47214514
X -2.75276384 13.70820015 -8.47214208
X -4.45406546 19.83869173 -16.49706717
X -11.66089476 22.18033799 -4.23607788
X 0.85065081 16.32623793 -0.00000729
X -0.52573111 11.53738270 -1.89443234
X -9.43386203 22.90394225 -9.91935978
X -8.58321122 19.39148277 -6.13050383
X -6.35617849 21.00951865 -1.89443657
X -18.01707325 14.87902139 -6.57771541
X 0.85065081 17.22065774 -16.49706600
X -26.07455335 12.26098506 -11.81378222
X -3.60341465 4.95967035 -9.91935177
X 6.68109819 9.19574022 -5.68328568
X -13.03727668 3.34163447 -14.15541903
X -15.79004052 1.89441983 -16.49705917
X -23.84752062 22.90394225 -9.91935978
X -12.18662587 21.45672572 -16.49706790
X -13.03727668 14.15540677 -24.07477340
X -24.69817143 15.60262754 -8.02492933
X -9.43386203 9.19574067 -4.68328568
X -12.18662587 14.43181053 -0.44722004
X -13.03727668 17.94427192 -0.00000801
X -4.12914576 5.68327650 -11.36656569
X -7.20682930 6.13049393 -2.78885712
X -22.47113870 17.22066152 -8.02493005
X -10.81024395 13.43180674 -8.91935555
X -18.01707325 8.74852792 -2.78885829
X -2.75276384 3.78884911 -11.81377844
X -17.16642244 9.91934492 -10.36656758
X -5.83044738 10.36655577 -16.49706294
X -4.97979657 20.56229788 -17.94428109
X -4.97979657 6.85409205 -22.18034295
X -13.56300779 12.53738081 -6.13050077
X -13.88792749 6.85409205 -22.18034295
X -17.16642244 12.26098506 -11.81378222
X -16.64069133 21.45672761 -12.26099992
X -5.83044738 4.23606609 -4.23606987
X 0.85065081 21.00951675 -6.13050455
X -15.26430941 19.56230400 -4.23607671
X -13.03727668 1.89441983 -16.49705917
X -14.41365860 6.13048780 -16.49706106
X -2.75276384 23.62754885 -10.36657370
X -17.49134213 17.94426812 -8.47214397
X -7.20682930 12.26098930 -2.34164626
X -4.45406546 6.13049348 -3.78885712
X -15.26430941 11.09016572 -9.47214091
X -10.81024395 27.14001257 -4.68329369
X -2.22703273 3.06524674 -1.89442856
X -19.39345517 10.64295531 -2.34164554
X -8.58321122 20.28591060 -4.68329063
X -13.03727668 14.15541100 -14.60263744
X -5.83044738 24.07475971 -16.49706907
X -13.03727668 16.49704925 -20.28592006
X -14.41365860 19.83869551 -8.02493122
X -17.16642244 13.70819825 -12.70821005
X -11.66089476 17.49704925 -20.28592051
X -4.12914576 10.36655577 -16.49706294
X -10.81024395 13.98459355 -8.02492860
X -9.43386203 25.24558095 -14.60264240
X -1.37638192 11.81376852 -18.39149078
X -8.58321122 8.02491329 -20.28591628
X -9.43386203 22.90394648 -0.44722382
X -12.18662587 12.98459968 5.68327578
X 0.00000000 19.83869173 -16.49706717
X -11.66089476 13.70820205 -4.23607410
X -9.43386203 26.69279937 -3.78886630
X -13.88792749 6.85409585 -13.70820700
X -8.58321122 9.47212794 -17.94427614
X -18.01707325 8.74852602 -7.02492626
X -17.49134213 5.68327082 -24.07476961
X -1.37638192 10.36655767 -12.26099497
X -13.03727668 14.15541056 -15.60263745
X -18.86772405 3.78884532 -20.28591440
X -23.84752062 14.43180864 -4.68328802
X -2.22703273 19.11508892 -7.57771730
X -5.83044738 17.94427192 -0.00000801
X -14.41365860 8.47213028 -12.70820772
X -0.52573111 11.53737891 -10.36656830
X -7.20682930 5.23606420 -8.47213830
X -14.41365860 17.49705493 -7.57771658
X -3.60341465 14.87902139 -6.57771541
X -8.58321122 10.91934303 -14.60263600
X -12.18662587 22.90394036 -14.15542776
X -8.58321122 10.36656191 -2.78885901
X -15.26430941 16.32623179 -13.70821122
X -1.37638192 14.15541245 -11.36656947
X -18.86772405 13.70819970 -9.47214208
X -17.49134213 16.49705917 1.89441983
X -13.56300779 17.22065963 -12.26099803
X -10.81024395 9.64295720 1.89442289
X -2.75276384 18.39148087 -10.36657136
X -11.33597506 14.15541100 -14.60263744
X -19.39345517 20.56230022 -12.70821312
X -13.03727668 9.47213028 -12.70820816
X -18.86772405 25.96918944 -10.81378834
X -12.18662587 12.09016805 -4.23607338
X -18.01707325 28.58722109 -16.04985749
X -14.93938971 12.98459165 -12.26099613
X -9.43386203 15.32622990 -17.94427875
X -9.43386203 0.72360048 -14.15541786
X -19.39345517 19.11508513 -16.04985325
X 3.07768354 10.36655767 -12.26099497
X -16.64069133 16.77345491 7.57770127
X -15.26430941 14.87901715 -16.04985136
X -8.58321122 5.68327271 -19.83870165
X -16.64069133 22.90394838 3.78884416
X -21.62048790 9.91934302 -14.60263555
X -6.35617849 16.32622990 -17.94427920
X -16.64069133 12.98458742 -21.73313209
X -16.64069133 6.85409205 -22.18034295
X -26.07455335 17.49705348 -10.81378455
X -13.56300779 22.45672950 -8.02493239
X -8.58321122 25.52197813 -5.68329297
X -8.58321122 21.73312101 -11.81378645
X -18.01707325 23.35115122 -20.28592312
X -20.24410598 9.47213028 -12.70820816
