832
# (c) 2025 a-prokhoda (Alexander S. Prokhoda) # Part of Quasicrystals Research Project
Fe -38.417476 52.877104 -32.679880
Li -39.928998 52.385980 -33.474534
Li -39.928998 53.368228 -31.885226
Li -38.417476 51.287795 -33.474534
Li -38.417476 52.877104 -34.456782
Li -37.483303 54.162882 -33.474535
Li -39.351648 54.162882 -33.474535
Li -39.351648 51.591327 -31.885225
Li -37.483303 51.591327 -31.885225
Li -36.905953 52.385980 -33.474534
Li -38.417476 54.466414 -31.885226
Li -36.905953 53.368228 -31.885226
Li -38.417476 52.877105 -30.902979
Fe -28.057345 42.778475 -29.313665
Li -28.057345 42.778473 -31.090567
Li -27.123173 41.492697 -28.519010
Li -28.057345 41.189165 -30.108320
Li -28.991518 41.492697 -28.519010
Li -26.545823 42.287351 -30.108319
Li -26.545823 43.269598 -28.519011
Li -28.057345 42.778476 -27.536764
Li -29.568868 43.269598 -28.519011
Li -29.568868 42.287351 -30.108319
Li -28.991518 44.064253 -30.108321
Li -28.057345 44.367784 -28.519011
Li -27.123173 44.064253 -30.108321
Fe -21.654433 40.698044 -25.152799
Li -23.165955 40.206920 -25.947453
Li -23.165955 41.189167 -24.358145
Li -21.654433 40.698043 -26.929701
Li -21.654433 39.108735 -25.947454
Li -22.588605 39.412267 -24.358145
Li -20.720260 39.412267 -24.358145
Li -20.142910 40.206920 -25.947453
Li -21.654433 42.287354 -24.358146
Li -22.588605 41.983822 -25.947455
Li -20.720260 41.983822 -25.947455
Li -20.142910 41.189167 -24.358145
Li -21.654433 40.698045 -23.375898
Fe -21.654433 47.430463 -29.313668
Li -23.165955 46.939340 -30.108322
Li -23.165955 47.921587 -28.519014
Li -21.654433 47.430462 -31.090569
Li -21.654433 45.841153 -30.108321
Li -22.588605 46.144685 -28.519012
Li -20.720260 46.144685 -28.519012
Li -21.654433 49.019772 -28.519013
Li -22.588605 48.716240 -30.108322
Li -20.720260 48.716240 -30.108322
Li -21.654433 47.430464 -27.536766
Li -20.142910 47.921587 -28.519014
Li -20.142910 46.939340 -30.108322
Fe -42.374693 47.430466 -21.786592
Li -43.886216 46.939342 -22.581247
Li -42.374693 45.841157 -22.581246
Li -42.374693 47.430465 -23.563493
Li -40.863171 46.939342 -22.581247
Li -43.308866 48.716244 -22.581247
Li -41.440521 48.716244 -22.581247
Li -43.308866 46.144689 -20.991937
Li -42.374693 47.430467 -20.009691
Li -41.440521 46.144689 -20.991937
Li -43.886216 47.921590 -20.991938
Li -42.374693 49.019775 -20.991939
Li -40.863171 47.921590 -20.991938
Fe -38.417476 35.251403 -21.786587
Li -39.928998 34.760279 -22.581241
Li -39.928998 35.742527 -20.991933
Li -36.905953 34.760279 -22.581241
Li -38.417476 33.662094 -22.581241
Li -38.417476 35.251402 -23.563488
Li -39.351648 36.537180 -22.581242
Li -37.483303 36.537180 -22.581242
Li -36.905953 35.742527 -20.991933
Li -39.351648 33.965625 -20.991932
Li -37.483303 33.965625 -20.991932
Li -38.417476 35.251404 -20.009685
Li -38.417476 36.840712 -20.991933
Fe -25.611650 52.877108 -25.152805
Li -26.545823 51.591330 -24.358150
Li -27.123173 52.385984 -25.947460
Li -27.123173 53.368232 -24.358151
Li -26.545823 54.162885 -25.947460
Li -25.611650 52.877107 -26.929706
Li -25.611650 51.287798 -25.947459
Li -24.100128 52.385984 -25.947460
Li -24.677478 54.162885 -25.947460
Li -24.677478 51.591330 -24.358150
Li -25.611650 52.877108 -23.375904
Li -25.611650 54.466417 -24.358152
Li -24.100128 53.368232 -24.358151
Fe -32.014563 44.064256 -22.581245
Li -33.526086 43.573132 -23.375900
Li -32.948735 42.778478 -21.786590
Li -32.014563 44.064254 -24.358146
Li -32.014563 42.474947 -23.375899
Li -31.080391 42.778478 -21.786590
Li -30.503040 43.573132 -23.375900
Li -32.014563 44.064257 -20.804344
Li -33.526086 44.555379 -21.786591
Li -32.948735 45.350034 -23.375900
Li -30.503040 44.555379 -21.786591
Li -32.014563 45.653564 -21.786591
Li -31.080391 45.350034 -23.375900
Fe -35.971781 42.778475 -29.313665
Li -37.483303 42.287351 -30.108319
Li -37.483303 43.269598 -28.519011
Li -36.905953 41.492697 -28.519010
Li -35.971781 42.778473 -31.090567
Li -35.971781 41.189165 -30.108320
Li -35.971781 42.778476 -27.536764
Li -35.037608 41.492697 -28.519010
Li -34.460258 43.269598 -28.519011
Li -34.460258 42.287351 -30.108319
Li -36.905953 44.064253 -30.108321
Li -35.971781 44.367784 -28.519011
Li -35.037608 44.064253 -30.108321
Fe -32.014563 44.064248 -39.412297
Li -33.526086 43.573124 -40.206952
Li -32.948735 42.778471 -38.617642
Li -30.503040 43.573124 -40.206952
Li -32.014563 42.474938 -40.206951
Li -31.080391 42.778471 -38.617642
Li -32.948735 45.350026 -40.206952
Li -33.526086 44.555372 -38.617643
Li -32.014563 44.064247 -41.189199
Li -31.080391 45.350026 -40.206952
Li -32.014563 45.653557 -38.617644
Li -30.503040 44.555372 -38.617643
Li -32.014563 44.064248 -37.635396
Fe -29.568868 40.698044 -25.152799
Li -30.503040 39.412267 -24.358145
Li -29.568868 39.108735 -25.947454
Li -31.080391 40.206920 -25.947453
Li -29.568868 40.698043 -26.929701
Li -31.080391 41.189167 -24.358145
Li -28.057345 40.206920 -25.947453
Li -28.057345 41.189167 -24.358145
Li -28.634696 39.412267 -24.358145
Li -30.503040 41.983822 -25.947455
Li -29.568868 42.287354 -24.358146
Li -28.634696 41.983822 -25.947455
Li -29.568868 40.698045 -23.375898
Fe -28.057345 38.617607 -36.046084
Li -28.057345 37.028298 -36.840738
Li -28.057345 38.617606 -37.822986
Li -27.123173 39.903385 -36.840739
Li -28.991518 39.903385 -36.840739
Li -28.991518 37.331829 -35.251429
Li -29.568868 38.126483 -36.840739
Li -29.568868 39.108731 -35.251430
Li -28.057345 40.206916 -35.251431
Li -28.057345 38.617608 -34.269183
Li -26.545823 38.126483 -36.840739
Li -27.123173 37.331829 -35.251429
Li -26.545823 39.108731 -35.251430
Fe -34.460258 47.430463 -29.313668
Li -34.460258 47.430462 -31.090569
Li -35.394430 46.144685 -28.519012
Li -34.460258 45.841153 -30.108321
Li -33.526086 46.144685 -28.519012
Li -35.971781 46.939340 -30.108322
Li -35.394430 48.716240 -30.108322
Li -35.971781 47.921587 -28.519014
Li -34.460258 47.430464 -27.536766
Li -34.460258 49.019772 -28.519013
Li -33.526086 48.716240 -30.108322
Li -32.948735 46.939340 -30.108322
Li -32.948735 47.921587 -28.519014
Fe -32.014563 50.796670 -36.046090
Li -32.948735 49.510893 -35.251435
Li -32.948735 52.082448 -36.840745
Li -33.526086 50.305546 -36.840744
Li -33.526086 51.287794 -35.251435
Li -32.014563 49.207361 -36.840743
Li -31.080391 49.510893 -35.251435
Li -32.014563 50.796670 -37.822991
Li -31.080391 52.082448 -36.840745
Li -30.503040 50.305546 -36.840744
Li -32.014563 52.385980 -35.251436
Li -30.503040 51.287794 -35.251435
Li -32.014563 50.796671 -34.269188
Fe -38.417476 52.877108 -25.152805
Li -39.928998 52.385984 -25.947460
Li -39.928998 53.368232 -24.358151
Li -36.905953 53.368232 -24.358151
Li -36.905953 52.385984 -25.947460
Li -39.351648 54.162885 -25.947460
Li -38.417476 54.466417 -24.358152
Li -38.417476 52.877107 -26.929706
Li -38.417476 51.287798 -25.947459
Li -37.483303 54.162885 -25.947460
Li -37.483303 51.591330 -24.358150
Li -39.351648 51.591330 -24.358150
Li -38.417476 52.877108 -23.375904
Fe -32.014563 39.903388 -29.313664
Li -33.526086 39.412264 -30.108318
Li -33.526086 40.394512 -28.519010
Li -32.948735 38.617610 -28.519009
Li -32.948735 41.189165 -30.108320
Li -32.014563 39.903387 -31.090565
Li -32.014563 39.903389 -27.536763
Li -31.080391 38.617610 -28.519009
Li -32.014563 38.314079 -30.108318
Li -30.503040 39.412264 -30.108318
Li -31.080391 41.189165 -30.108320
Li -32.014563 41.492697 -28.519010
Li -30.503040 40.394512 -28.519010
Fe -38.417476 41.983825 -18.420379
Li -39.928998 41.492701 -19.215034
Li -39.928998 42.474949 -17.625725
Li -38.417476 40.394516 -19.215033
Li -38.417476 41.983824 -20.197281
Li -39.351648 43.269603 -19.215034
Li -37.483303 43.269603 -19.215034
Li -36.905953 41.492701 -19.215034
Li -38.417476 43.573134 -17.625726
Li -36.905953 42.474949 -17.625725
Li -37.483303 40.698048 -17.625724
Li -39.351648 40.698048 -17.625724
Li -38.417476 41.983826 -16.643478
Fe -25.611650 52.877104 -32.679880
Li -26.545823 51.591327 -31.885225
Li -27.123173 52.385980 -33.474534
Li -27.123173 53.368228 -31.885226
Li -26.545823 54.162882 -33.474535
Li -25.611650 52.877104 -34.456782
Li -25.611650 51.287795 -33.474534
Li -24.100128 52.385980 -33.474534
Li -25.611650 52.877105 -30.902979
Li -24.677478 51.591327 -31.885225
Li -24.677478 54.162882 -33.474535
Li -25.611650 54.466414 -31.885226
Li -24.100128 53.368228 -31.885226
Fe -42.374693 40.698040 -32.679875
Li -43.886216 40.206917 -33.474529
Li -42.374693 39.108732 -33.474529
Li -40.863171 40.206917 -33.474529
Li -43.308866 41.983818 -33.474530
Li -42.374693 40.698040 -34.456776
Li -41.440521 41.983818 -33.474530
Li -43.308866 39.412263 -31.885220
Li -41.440521 39.412263 -31.885220
Li -43.886216 41.189165 -31.885220
Li -42.374693 42.287350 -31.885221
Li -42.374693 40.698042 -30.902974
Li -40.863171 41.189165 -31.885220
Fe -32.014563 37.331833 -25.947452
Li -32.014563 37.331833 -27.724354
Li -33.526086 37.822957 -25.152798
Li -32.948735 36.046056 -25.152798
Li -33.526086 36.840709 -26.742106
Li -32.948735 38.617611 -26.742108
Li -32.014563 35.742524 -26.742107
Li -31.080391 36.046056 -25.152798
Li -30.503040 36.840709 -26.742106
Li -30.503040 37.822957 -25.152798
Li -32.014563 37.331834 -24.170551
Li -31.080391 38.617611 -26.742108
Li -32.014563 38.921143 -25.152799
Fe -35.971781 45.350032 -25.152802
Li -36.905953 44.064254 -24.358146
Li -35.971781 43.760723 -25.947456
Li -35.037608 44.064254 -24.358146
Li -37.483303 45.841156 -24.358148
Li -36.905953 46.635810 -25.947457
Li -37.483303 44.858909 -25.947456
Li -35.037608 46.635810 -25.947457
Li -35.971781 45.350031 -26.929703
Li -34.460258 45.841156 -24.358148
Li -34.460258 44.858909 -25.947456
Li -35.971781 46.939342 -24.358147
Li -35.971781 45.350034 -23.375900
Fe -28.057345 45.350029 -32.679877
Li -28.057345 43.760720 -33.474530
Li -28.057345 45.350028 -34.456778
Li -29.568868 45.841153 -31.885223
Li -29.568868 44.858905 -33.474531
Li -28.991518 46.635806 -33.474532
Li -28.991518 44.064251 -31.885222
Li -28.057345 45.350030 -30.902975
Li -27.123173 44.064251 -31.885222
Li -27.123173 46.635806 -33.474532
Li -26.545823 45.841153 -31.885223
Li -26.545823 44.858905 -33.474531
Li -28.057345 46.939338 -31.885223
Fe -38.417476 35.251399 -29.313662
Li -39.928998 35.742523 -28.519007
Li -39.928998 34.760275 -30.108316
Li -38.417476 35.251399 -31.090563
Li -37.483303 33.965622 -28.519007
Li -39.351648 33.965622 -28.519007
Li -38.417476 33.662090 -30.108316
Li -36.905953 34.760275 -30.108316
Li -38.417476 36.840709 -28.519008
Li -37.483303 36.537177 -30.108317
Li -36.905953 35.742523 -28.519007
Li -38.417476 35.251400 -27.536761
Li -39.351648 36.537177 -30.108317
Fe -32.014563 33.170969 -25.152797
Li -33.526086 32.679845 -25.947451
Li -32.948735 31.885191 -24.358141
Li -33.526086 33.662093 -24.358142
Li -32.948735 34.456746 -25.947451
Li -32.014563 31.581660 -25.947450
Li -32.014563 34.760278 -24.358142
Li -30.503040 32.679845 -25.947451
Li -31.080391 34.456746 -25.947451
Li -32.014563 33.170968 -26.929697
Li -30.503040 33.662093 -24.358142
Li -31.080391 31.885191 -24.358141
Li -32.014563 33.170970 -23.375895
Fe -42.374693 40.698044 -25.152799
Li -43.886216 40.206920 -25.947453
Li -43.886216 41.189167 -24.358145
Li -41.440521 39.412267 -24.358145
Li -43.308866 39.412267 -24.358145
Li -42.374693 40.698043 -26.929701
Li -42.374693 39.108735 -25.947454
Li -40.863171 40.206920 -25.947453
Li -40.863171 41.189167 -24.358145
Li -43.308866 41.983822 -25.947455
Li -42.374693 42.287354 -24.358146
Li -41.440521 41.983822 -25.947455
Li -42.374693 40.698045 -23.375898
Fe -32.014563 39.903391 -21.786589
Li -33.526086 39.412267 -22.581243
Li -32.948735 38.617614 -20.991934
Li -33.526086 40.394514 -20.991935
Li -32.948735 41.189169 -22.581244
Li -32.014563 39.903390 -23.563491
Li -32.014563 38.314082 -22.581243
Li -30.503040 40.394514 -20.991935
Li -30.503040 39.412267 -22.581243
Li -31.080391 38.617614 -20.991934
Li -32.014563 41.492701 -20.991935
Li -31.080391 41.189169 -22.581244
Li -32.014563 39.903392 -20.009687
Fe -35.971781 38.617610 -28.519009
Li -35.971781 37.028301 -29.313663
Li -36.905953 37.331833 -27.724354
Li -37.483303 38.126486 -29.313663
Li -37.483303 39.108734 -27.724354
Li -36.905953 39.903388 -29.313664
Li -35.971781 38.617610 -30.295910
Li -35.971781 40.206920 -27.724355
Li -35.037608 39.903388 -29.313664
Li -35.037608 37.331833 -27.724354
Li -34.460258 38.126486 -29.313663
Li -34.460258 39.108734 -27.724354
Li -35.971781 38.617611 -26.742108
Fe -32.014563 44.064251 -31.885222
Li -33.526086 43.573128 -32.679876
Li -32.948735 42.778473 -31.090567
Li -31.080391 42.778473 -31.090567
Li -30.503040 43.573128 -32.679876
Li -32.014563 42.474943 -32.679876
Li -32.948735 45.350029 -32.679877
Li -33.526086 44.555375 -31.090567
Li -32.014563 44.064250 -33.662123
Li -30.503040 44.555375 -31.090567
Li -31.080391 45.350029 -32.679877
Li -32.014563 45.653560 -31.090568
Li -32.014563 44.064253 -30.108321
Fe -29.568868 40.698040 -32.679875
Li -31.080391 40.206917 -33.474529
Li -29.568868 39.108732 -33.474529
Li -28.057345 40.206917 -33.474529
Li -29.568868 40.698040 -34.456776
Li -30.503040 41.983818 -33.474530
Li -28.634696 41.983818 -33.474530
Li -30.503040 39.412263 -31.885220
Li -28.634696 39.412263 -31.885220
Li -31.080391 41.189165 -31.885220
Li -29.568868 42.287350 -31.885221
Li -29.568868 40.698042 -30.902974
Li -28.057345 41.189165 -31.885220
Fe -32.014563 33.170965 -32.679871
Li -33.526086 32.679841 -33.474526
Li -32.948735 31.885188 -31.885216
Li -33.526086 33.662089 -31.885217
Li -32.948735 34.456743 -33.474526
Li -32.014563 33.170965 -34.456773
Li -30.503040 33.662089 -31.885217
Li -32.014563 33.170966 -30.902970
Li -30.503040 32.679841 -33.474526
Li -32.014563 31.581656 -33.474525
Li -31.080391 31.885188 -31.885216
Li -31.080391 34.456743 -33.474526
Li -32.014563 34.760275 -31.885218
Fe -28.057345 45.350032 -25.152802
Li -28.991518 44.064254 -24.358146
Li -28.057345 43.760723 -25.947456
Li -27.123173 44.064254 -24.358146
Li -29.568868 44.858909 -25.947456
Li -29.568868 45.841156 -24.358148
Li -28.991518 46.635810 -25.947457
Li -28.057345 45.350031 -26.929703
Li -28.057345 46.939342 -24.358147
Li -27.123173 46.635810 -25.947457
Li -26.545823 44.858909 -25.947456
Li -26.545823 45.841156 -24.358148
Li -28.057345 45.350034 -23.375900
Fe -21.654433 40.698040 -32.679875
Li -23.165955 40.206917 -33.474529
Li -21.654433 39.108732 -33.474529
Li -20.142910 40.206917 -33.474529
Li -21.654433 40.698040 -34.456776
Li -22.588605 41.983818 -33.474530
Li -20.720260 41.983818 -33.474530
Li -22.588605 39.412263 -31.885220
Li -23.165955 41.189165 -31.885220
Li -20.720260 39.412263 -31.885220
Li -21.654433 42.287350 -31.885221
Li -21.654433 40.698042 -30.902974
Li -20.142910 41.189165 -31.885220
Fe -25.611650 35.251403 -21.786587
Li -27.123173 34.760279 -22.581241
Li -26.545823 33.965625 -20.991932
Li -26.545823 36.537180 -22.581242
Li -27.123173 35.742527 -20.991933
Li -25.611650 33.662094 -22.581241
Li -24.677478 33.965625 -20.991932
Li -24.100128 34.760279 -22.581241
Li -25.611650 35.251402 -23.563488
Li -24.100128 35.742527 -20.991933
Li -24.677478 36.537180 -22.581242
Li -25.611650 36.840712 -20.991933
Li -25.611650 35.251404 -20.009685
Fe -35.971781 42.778478 -21.786590
Li -36.905953 44.064256 -22.581245
Li -37.483303 42.287354 -22.581244
Li -36.905953 41.492701 -20.991935
Li -37.483303 43.269601 -20.991936
Li -35.037608 44.064256 -22.581245
Li -35.971781 41.189169 -22.581244
Li -35.971781 42.778477 -23.563492
Li -35.037608 41.492701 -20.991935
Li -34.460258 43.269601 -20.991936
Li -34.460258 42.287354 -22.581244
Li -35.971781 42.778479 -20.009689
Li -35.971781 44.367787 -20.991937
Fe -32.014563 48.225119 -25.152803
Li -32.948735 46.939342 -24.358147
Li -33.526086 47.733995 -25.947457
Li -32.948735 49.510897 -25.947458
Li -33.526086 48.716243 -24.358149
Li -32.014563 46.635810 -25.947457
Li -31.080391 46.939342 -24.358147
Li -32.014563 48.225118 -26.929704
Li -30.503040 47.733995 -25.947457
Li -31.080391 49.510897 -25.947458
Li -30.503040 48.716243 -24.358149
Li -32.014563 49.814428 -24.358149
Li -32.014563 48.225120 -23.375902
Fe -38.417476 46.144682 -36.046088
Li -39.928998 45.653558 -36.840742
Li -39.928998 46.635806 -35.251433
Li -38.417476 46.144681 -37.822989
Li -37.483303 44.858904 -35.251433
Li -38.417476 44.555373 -36.840741
Li -36.905953 45.653558 -36.840742
Li -39.351648 44.858904 -35.251433
Li -38.417476 46.144683 -34.269186
Li -37.483303 47.430459 -36.840743
Li -39.351648 47.430459 -36.840743
Li -38.417476 47.733991 -35.251434
Li -36.905953 46.635806 -35.251433
Fe -32.014563 50.796674 -28.519015
Li -32.948735 49.510896 -27.724359
Li -33.526086 51.287798 -27.724361
Li -33.526086 50.305550 -29.313669
Li -32.948735 52.082451 -29.313669
Li -31.080391 49.510896 -27.724359
Li -32.014563 49.207364 -29.313668
Li -31.080391 52.082451 -29.313669
Li -32.014563 50.796673 -30.295916
Li -32.014563 52.385983 -27.724360
Li -30.503040 51.287798 -27.724361
Li -30.503040 50.305550 -29.313669
Li -32.014563 50.796674 -26.742113
Fe -32.014563 54.957542 -21.786596
Li -32.948735 53.671764 -20.991941
Li -33.526086 54.466418 -22.581250
Li -32.948735 56.243319 -22.581251
Li -33.526086 55.448666 -20.991941
Li -30.503040 54.466418 -22.581250
Li -32.014563 53.368232 -22.581249
Li -32.014563 54.957541 -23.563497
Li -30.503040 55.448666 -20.991941
Li -31.080391 56.243319 -22.581251
Li -32.014563 56.546851 -20.991942
Li -31.080391 53.671764 -20.991941
Li -32.014563 54.957542 -20.009694
Fe -25.611650 41.983822 -25.947455
Li -25.611650 41.983820 -27.724356
Li -26.545823 40.698044 -25.152799
Li -27.123173 41.492698 -26.742109
Li -27.123173 42.474945 -25.152801
Li -26.545823 43.269600 -26.742110
Li -25.611650 40.394512 -26.742109
Li -24.677478 40.698044 -25.152799
Li -24.100128 41.492698 -26.742109
Li -24.677478 43.269600 -26.742110
Li -25.611650 43.573131 -25.152800
Li -24.100128 42.474945 -25.152801
Li -25.611650 41.983823 -24.170553
Fe -25.611650 41.983825 -18.420379
Li -26.545823 40.698048 -17.625724
Li -26.545823 43.269603 -19.215034
Li -27.123173 41.492701 -19.215034
Li -27.123173 42.474949 -17.625725
Li -24.677478 40.698048 -17.625724
Li -25.611650 40.394516 -19.215033
Li -24.677478 43.269603 -19.215034
Li -25.611650 41.983824 -20.197281
Li -24.100128 41.492701 -19.215034
Li -24.100128 42.474949 -17.625725
Li -25.611650 43.573134 -17.625726
Li -25.611650 41.983826 -16.643478
Fe -32.014563 48.225116 -32.679878
Li -33.526086 47.733993 -33.474532
Li -32.948735 49.510893 -33.474533
Li -33.526086 48.716240 -31.885224
Li -32.948735 46.939338 -31.885223
Li -32.014563 48.225115 -34.456780
Li -32.014563 46.635806 -33.474532
Li -30.503040 48.716240 -31.885224
Li -31.080391 46.939338 -31.885223
Li -32.014563 48.225117 -30.902976
Li -31.080391 49.510893 -33.474533
Li -32.014563 49.814425 -31.885224
Li -30.503040 47.733993 -33.474532
Fe -28.057345 38.617610 -28.519009
Li -28.057345 37.028301 -29.313663
Li -28.057345 38.617610 -30.295910
Li -29.568868 38.126486 -29.313663
Li -29.568868 39.108734 -27.724354
Li -28.991518 39.903388 -29.313664
Li -28.991518 37.331833 -27.724354
Li -27.123173 37.331833 -27.724354
Li -26.545823 38.126486 -29.313663
Li -26.545823 39.108734 -27.724354
Li -27.123173 39.903388 -29.313664
Li -28.057345 40.206920 -27.724355
Li -28.057345 38.617611 -26.742108
Fe -38.417476 46.144685 -28.519012
Li -39.928998 45.653562 -29.313666
Li -39.928998 46.635809 -27.724358
Li -38.417476 46.144684 -30.295914
Li -39.351648 44.858907 -27.724357
Li -36.905953 45.653562 -29.313666
Li -38.417476 44.555376 -29.313667
Li -37.483303 44.858907 -27.724357
Li -36.905953 46.635809 -27.724358
Li -37.483303 47.430463 -29.313668
Li -39.351648 47.430463 -29.313668
Li -38.417476 47.733995 -27.724358
Li -38.417476 46.144687 -26.742111
Fe -25.611650 46.144685 -28.519012
Li -27.123173 45.653562 -29.313666
Li -26.545823 44.858907 -27.724357
Li -27.123173 46.635809 -27.724358
Li -26.545823 47.430463 -29.313668
Li -25.611650 46.144684 -30.295914
Li -24.100128 45.653562 -29.313666
Li -25.611650 44.555376 -29.313667
Li -24.677478 44.858907 -27.724357
Li -24.100128 46.635809 -27.724358
Li -24.677478 47.430463 -29.313668
Li -25.611650 47.733995 -27.724358
Li -25.611650 46.144687 -26.742111
Fe -32.014563 44.064258 -15.054170
Li -33.526086 43.573135 -15.848824
Li -32.948735 42.778481 -14.259515
Li -31.080391 42.778481 -14.259515
Li -32.014563 42.474950 -15.848823
Li -30.503040 43.573135 -15.848824
Li -32.014563 44.064259 -16.831071
Li -32.014563 44.064260 -13.277268
Li -32.948735 45.350036 -15.848825
Li -33.526086 44.555383 -14.259515
Li -31.080391 45.350036 -15.848825
Li -30.503040 44.555383 -14.259515
Li -32.014563 45.653569 -14.259516
Fe -25.611650 46.144682 -36.046088
Li -27.123173 45.653558 -36.840742
Li -26.545823 44.858904 -35.251433
Li -26.545823 47.430459 -36.840743
Li -27.123173 46.635806 -35.251433
Li -25.611650 46.144681 -37.822989
Li -24.100128 45.653558 -36.840742
Li -25.611650 44.555373 -36.840741
Li -24.100128 46.635806 -35.251433
Li -24.677478 44.858904 -35.251433
Li -25.611650 46.144683 -34.269186
Li -24.677478 47.430459 -36.840743
Li -25.611650 47.733991 -35.251434
Fe -28.057345 49.510897 -25.947458
Li -28.057345 49.510896 -27.724359
Li -29.568868 50.002021 -25.152804
Li -29.568868 49.019773 -26.742113
Li -28.991518 48.225119 -25.152803
Li -27.123173 48.225119 -25.152803
Li -28.057345 47.921587 -26.742112
Li -26.545823 49.019773 -26.742113
Li -28.991518 50.796674 -26.742113
Li -26.545823 50.002021 -25.152804
Li -27.123173 50.796674 -26.742113
Li -28.057345 49.510897 -24.170557
Li -28.057345 51.100206 -25.152804
Fe -32.014563 54.957538 -29.313670
Li -32.948735 53.671761 -28.519016
Li -33.526086 54.466414 -30.108325
Li -33.526086 55.448662 -28.519016
Li -32.948735 56.243316 -30.108326
Li -32.014563 54.957538 -31.090572
Li -31.080391 53.671761 -28.519016
Li -31.080391 56.243316 -30.108326
Li -32.014563 56.546848 -28.519017
Li -30.503040 55.448662 -28.519016
Li -30.503040 54.466414 -30.108325
Li -32.014563 54.957539 -27.536770
Li -32.014563 53.368229 -30.108325
Fe -35.971781 38.617607 -36.046084
Li -35.971781 37.028298 -36.840738
Li -36.905953 39.903385 -36.840739
Li -37.483303 38.126483 -36.840739
Li -37.483303 39.108731 -35.251430
Li -36.905953 37.331829 -35.251429
Li -35.971781 38.617606 -37.822986
Li -35.037608 39.903385 -36.840739
Li -34.460258 38.126483 -36.840739
Li -35.037608 37.331829 -35.251429
Li -34.460258 39.108731 -35.251430
Li -35.971781 38.617608 -34.269183
Li -35.971781 40.206916 -35.251431
Fe -29.568868 47.430463 -29.313668
Li -29.568868 47.430462 -31.090569
Li -30.503040 46.144685 -28.519012
Li -29.568868 45.841153 -30.108321
Li -28.634696 46.144685 -28.519012
Li -31.080391 46.939340 -30.108322
Li -29.568868 47.430464 -27.536766
Li -31.080391 47.921587 -28.519014
Li -30.503040 48.716240 -30.108322
Li -29.568868 49.019772 -28.519013
Li -28.057345 46.939340 -30.108322
Li -28.057345 47.921587 -28.519014
Li -28.634696 48.716240 -30.108322
Fe -28.057345 42.778478 -21.786590
Li -29.568868 42.287354 -22.581244
Li -29.568868 43.269601 -20.991936
Li -28.991518 41.492701 -20.991935
Li -27.123173 41.492701 -20.991935
Li -28.057345 41.189169 -22.581244
Li -26.545823 42.287354 -22.581244
Li -28.057345 42.778477 -23.563492
Li -26.545823 43.269601 -20.991936
Li -27.123173 44.064256 -22.581245
Li -28.991518 44.064256 -22.581245
Li -28.057345 42.778479 -20.009689
Li -28.057345 44.367787 -20.991937
Fe -29.568868 47.430466 -21.786592
Li -29.568868 45.841157 -22.581246
Li -31.080391 46.939342 -22.581247
Li -29.568868 47.430465 -23.563493
Li -28.057345 46.939342 -22.581247
Li -30.503040 48.716244 -22.581247
Li -28.634696 48.716244 -22.581247
Li -29.568868 47.430467 -20.009691
Li -30.503040 46.144689 -20.991937
Li -28.634696 46.144689 -20.991937
Li -31.080391 47.921590 -20.991938
Li -29.568868 49.019775 -20.991939
Li -28.057345 47.921590 -20.991938
Fe -35.971781 49.510897 -25.947458
Li -35.971781 49.510896 -27.724359
Li -37.483303 49.019773 -26.742113
Li -36.905953 48.225119 -25.152803
Li -36.905953 50.796674 -26.742113
Li -37.483303 50.002021 -25.152804
Li -35.971781 47.921587 -26.742112
Li -35.037608 48.225119 -25.152803
Li -35.037608 50.796674 -26.742113
Li -34.460258 49.019773 -26.742113
Li -34.460258 50.002021 -25.152804
Li -35.971781 49.510897 -24.170557
Li -35.971781 51.100206 -25.152804
Fe -32.014563 37.331837 -18.420377
Li -33.526086 36.840713 -19.215032
Li -33.526086 37.822961 -17.625723
Li -32.948735 36.046059 -17.625722
Li -32.948735 38.617614 -19.215032
Li -30.503040 36.840713 -19.215032
Li -32.014563 37.331836 -20.197279
Li -32.014563 35.742528 -19.215031
Li -30.503040 37.822961 -17.625723
Li -31.080391 36.046059 -17.625722
Li -32.014563 37.331838 -16.643476
Li -31.080391 38.617614 -19.215032
Li -32.014563 38.921146 -17.625724
Fe -34.460258 47.430466 -21.786592
Li -35.971781 46.939342 -22.581247
Li -34.460258 45.841157 -22.581246
Li -34.460258 47.430465 -23.563493
Li -32.948735 46.939342 -22.581247
Li -35.394430 48.716244 -22.581247
Li -33.526086 48.716244 -22.581247
Li -35.394430 46.144689 -20.991937
Li -33.526086 46.144689 -20.991937
Li -35.971781 47.921590 -20.991938
Li -34.460258 47.430467 -20.009691
Li -34.460258 49.019775 -20.991939
Li -32.948735 47.921590 -20.991938
Fe -34.460258 40.698040 -32.679875
Li -32.948735 40.206917 -33.474529
Li -35.971781 40.206917 -33.474529
Li -34.460258 40.698040 -34.456776
Li -35.394430 41.983818 -33.474530
Li -33.526086 41.983818 -33.474530
Li -34.460258 39.108732 -33.474529
Li -35.394430 39.412263 -31.885220
Li -33.526086 39.412263 -31.885220
Li -35.971781 41.189165 -31.885220
Li -34.460258 40.698042 -30.902974
Li -34.460258 42.287350 -31.885221
Li -32.948735 41.189165 -31.885220
Fe -35.971781 49.510900 -18.420383
Li -37.483303 49.019776 -19.215037
Li -36.905953 48.225122 -17.625728
Li -37.483303 50.002024 -17.625728
Li -35.971781 47.921591 -19.215036
Li -35.971781 49.510899 -20.197284
Li -34.460258 49.019776 -19.215037
Li -35.971781 49.510901 -16.643481
Li -35.037608 48.225122 -17.625728
Li -34.460258 50.002024 -17.625728
Li -36.905953 50.796678 -19.215038
Li -35.037608 50.796678 -19.215038
Li -35.971781 51.100209 -17.625729
Fe -25.611650 35.251399 -29.313662
Li -27.123173 34.760275 -30.108316
Li -26.545823 33.965622 -28.519007
Li -26.545823 36.537177 -30.108317
Li -27.123173 35.742523 -28.519007
Li -25.611650 35.251399 -31.090563
Li -25.611650 33.662090 -30.108316
Li -24.677478 33.965622 -28.519007
Li -24.100128 34.760275 -30.108316
Li -25.611650 35.251400 -27.536761
Li -24.100128 35.742523 -28.519007
Li -25.611650 36.840709 -28.519008
Li -24.677478 36.537177 -30.108317
Fe -35.971781 45.350029 -32.679877
Li -35.971781 43.760720 -33.474530
Li -35.971781 45.350028 -34.456778
Li -37.483303 44.858905 -33.474531
Li -36.905953 44.064251 -31.885222
Li -37.483303 45.841153 -31.885223
Li -36.905953 46.635806 -33.474532
Li -35.037608 46.635806 -33.474532
Li -35.971781 45.350030 -30.902975
Li -35.037608 44.064251 -31.885222
Li -34.460258 44.858905 -33.474531
Li -34.460258 45.841153 -31.885223
Li -35.971781 46.939338 -31.885223
Fe -28.057345 49.510900 -18.420383
Li -28.991518 50.796678 -19.215038
Li -29.568868 49.019776 -19.215037
Li -28.057345 47.921591 -19.215036
Li -28.057345 49.510899 -20.197284
Li -27.123173 50.796678 -19.215038
Li -26.545823 49.019776 -19.215037
Li -29.568868 50.002024 -17.625728
Li -28.991518 48.225122 -17.625728
Li -27.123173 48.225122 -17.625728
Li -28.057345 49.510901 -16.643481
Li -26.545823 50.002024 -17.625728
Li -28.057345 51.100209 -17.625729
Fe -42.374693 47.430463 -29.313668
Li -43.886216 46.939340 -30.108322
Li -43.886216 47.921587 -28.519014
Li -42.374693 47.430462 -31.090569
Li -42.374693 45.841153 -30.108321
Li -43.308866 46.144685 -28.519012
Li -41.440521 46.144685 -28.519012
Li -40.863171 46.939340 -30.108322
Li -42.374693 47.430464 -27.536766
Li -40.863171 47.921587 -28.519014
Li -42.374693 49.019772 -28.519013
Li -41.440521 48.716240 -30.108322
Li -43.308866 48.716240 -30.108322
Fe -38.417476 41.983822 -25.947455
Li -38.417476 41.983820 -27.724356
Li -39.928998 41.492698 -26.742109
Li -39.928998 42.474945 -25.152801
Li -38.417476 40.394512 -26.742109
Li -39.351648 40.698044 -25.152799
Li -37.483303 40.698044 -25.152799
Li -36.905953 41.492698 -26.742109
Li -36.905953 42.474945 -25.152801
Li -37.483303 43.269600 -26.742110
Li -39.351648 43.269600 -26.742110
Li -38.417476 43.573131 -25.152800
Li -38.417476 41.983823 -24.170553
Fe -21.654433 47.430466 -21.786592
Li -23.165955 46.939342 -22.581247
Li -21.654433 45.841157 -22.581246
Li -21.654433 47.430465 -23.563493
Li -20.142910 46.939342 -22.581247
Li -22.588605 48.716244 -22.581247
Li -20.720260 48.716244 -22.581247
Li -22.588605 46.144689 -20.991937
Li -21.654433 47.430467 -20.009691
Li -20.720260 46.144689 -20.991937
Li -23.165955 47.921590 -20.991938
Li -21.654433 49.019775 -20.991939
Li -20.142910 47.921590 -20.991938
Fe -34.460258 40.698044 -25.152799
Li -35.971781 40.206920 -25.947453
Li -34.460258 40.698043 -26.929701
Li -34.460258 39.108735 -25.947454
Li -32.948735 40.206920 -25.947453
Li -35.971781 41.189167 -24.358145
Li -35.394430 41.983822 -25.947455
Li -34.460258 42.287354 -24.358146
Li -32.948735 41.189167 -24.358145
Li -33.526086 41.983822 -25.947455
Li -33.526086 39.412267 -24.358145
Li -35.394430 39.412267 -24.358145
Li -34.460258 40.698045 -23.375898
