64
# (c) 2025 a-prokhoda (Alexander S. Prokhoda)# Part of Quasicrystals Research Project
X 0.93417236 1.28577680 -2.57155647
X 0.00000000 4.16086449 -0.79465633
X -1.51152263 2.08043056 -4.16086577
X 0.00000000 2.57155518 -1.58931009
X -1.51152263 3.06267822 -2.57155726
X -1.51152263 3.66973985 -3.36621200
X -2.44569499 0.79465376 -1.58930930
X -2.44569499 3.36621072 0.79465297
X -3.02304526 1.58930851 -0.98224766
X -3.95721762 1.28577680 -2.57155647
X -1.51152263 -0.49112462 -2.57155567
X -1.51152263 1.09818468 -1.77690191
X -0.57735027 1.77690142 -0.00000079
X -1.51152263 2.08043136 -2.38396435
X -1.51152263 -0.49112383 -0.79465425
X 0.00000000 1.58930930 0.79465376
X -1.51152263 0.49112303 -0.98224717
X -0.93417236 1.28577759 -0.79465505
X -1.51152263 4.65198831 -0.00000208
X -3.02304526 2.57155439 -3.36621152
X -0.93417236 2.87508689 -0.00000128
X -2.08887290 1.28577759 -0.79465505
X -2.08887290 2.87508689 -0.00000128
X -0.57735027 3.36621072 0.79465297
X 0.93417236 2.87508610 -1.77690270
X 0.00000000 1.58930851 -0.98224766
X -1.51152263 4.65198751 -1.77690349
X -2.44569499 1.77690063 -1.77690221
X -2.44569499 3.36620993 -0.98224845
X -3.02304526 1.58930930 0.79465376
X 0.93417236 2.87508689 -0.00000128
X -3.02304526 2.57155518 -1.58931009
X -1.51152263 3.06267901 -0.79465584
X -0.93417236 2.87508610 -1.77690270
X -0.57735027 2.38396227 -2.57155696
X -3.02304526 -0.00000079 -1.77690142
X -3.95721762 1.28577759 -0.79465505
X -2.44569499 2.38396306 -0.79465554
X 0.00000000 0.00000000 0.00000000
X -3.02304526 4.16086449 -0.79465633
X -1.51152263 0.49112383 0.79465425
X -0.93417236 1.28577680 -2.57155647
X -3.95721762 2.87508610 -1.77690270
X 0.00000000 4.16086368 -2.57155775
X -2.08887290 2.87508610 -1.77690270
X -2.44569499 1.77690142 -0.00000079
X -3.02304526 4.16086368 -2.57155775
X -0.57735027 0.79465376 -1.58930930
X -2.44569499 2.38396227 -2.57155696
X -0.57735027 2.38396306 -0.79465554
X -0.00000000 -0.00000079 -1.77690142
X -1.51152263 2.08043234 -0.18759340
X 0.93417236 1.28577759 -0.79465505
X -2.08887290 1.28577680 -2.57155647
X -0.57735027 1.77690063 -1.77690221
X -1.51152263 1.09818547 -0.00000049
X -3.02304526 0.00000000 0.00000000
X -3.95721762 2.87508689 -0.00000128
X -0.57735027 3.36620993 -0.98224845
X -0.57735027 0.79465297 -3.36621072
X -1.51152263 3.66974066 -1.58931059
X 0.00000000 2.57155439 -3.36621152
X -2.44569499 0.79465297 -3.36621072
X -1.51152263 2.08043313 1.58930802
