729
# (c) 2025 a-prokhoda (Alexander S. Prokhoda)# Part of Quasicrystals Research Project
X -4.45406546 6.13049348 -3.78885712
X -4.97979657 0.72360048 -14.15541786
X -5.83044738 8.02491898 -7.57771235
X -5.83044738 17.94427192 -0.00000801
X -14.41365860 19.83869362 -12.26099920
X -1.37638192 9.47213407 -4.23607221
X 0.00000000 6.13049159 -8.02492510
X -7.20682930 3.78885100 -7.57771046
X -3.60341465 8.74852981 1.44720969
X -13.03727668 15.60262564 -12.26099730
X -8.58321122 1.89442172 -12.26099119
X -1.37638192 11.81377421 -5.68328685
X -7.20682930 8.47213596 -0.00000378
X -3.60341465 11.09016616 -8.47214091
X -3.60341465 17.22066152 -8.02493005
X -6.35617849 14.87902329 -2.34164743
X -2.75276384 7.57770244 -14.15542092
X -5.83044738 17.94427002 -4.23607599
X -9.43386203 14.43180820 -5.68328802
X -1.37638192 5.68328073 -1.89442973
X -1.37638192 9.47213596 -0.00000423
X 0.00000000 12.26098506 -11.81378222
X -14.41365860 -0.00000378 -8.47213596
X -12.18662587 6.85410008 -4.23607104
X -11.66089476 16.04984263 -4.68328874
X -15.26430941 14.87902329 -2.34164743
X -10.81024395 18.66787427 -9.91935789
X -5.83044738 10.36655767 -12.26099497
X -2.75276384 16.04984263 -4.68328874
X -2.75276384 13.70820015 -8.47214208
X -3.60341465 2.61803021 -8.47213713
X -8.58321122 10.36656146 -3.78885901
X -11.66089476 13.70820205 -4.23607410
X -4.97979657 9.19574067 -4.68328568
X -10.81024395 8.74852747 -3.78885829
X 0.00000000 12.26098316 -16.04985019
X -10.81024395 13.43180820 -5.68328757
X -8.05748011 7.30131283 -6.13049843
X -13.03727668 5.68327884 -6.13049771
X -4.97979657 12.98459355 -8.02492816
X -11.66089476 8.47213407 -4.23607176
X -14.41365860 7.57770668 -4.68328496
X -4.97979657 19.11509316 1.89441865
X -15.26430941 4.95967224 -5.68328379
X -2.75276384 6.13049348 -3.78885712
X -3.60341465 18.66787617 -5.68328991
X -3.60341465 11.09016572 -9.47214091
X -11.66089476 12.26098930 -2.34164626
X -10.81024395 8.74852792 -2.78885829
X -15.26430941 8.74852747 -3.78885829
X -2.75276384 16.04984453 -0.44722076
X -10.81024395 21.00951486 -10.36657253
X -3.60341465 21.00951865 -1.89443657
X -3.60341465 -1.17082313 -6.13049465
X -9.43386203 6.85410197 -0.00000306
X -13.03727668 8.02491709 -11.81378033
X -9.43386203 10.64295720 1.89442244
X -5.83044738 9.47213407 -4.23607221
X -7.20682930 6.13048970 -12.26099308
X 2.22703273 16.77344688 -10.36657064
X -1.37638192 4.23606420 -8.47213785
X -4.97979657 9.19574256 -0.44721770
X -4.97979657 12.98459545 -3.78886018
X -6.35617849 7.30131472 -1.89443045
X -1.37638192 1.89442550 -3.78885523
X -6.35617849 12.53738270 -1.89443279
X -9.43386203 10.64295531 -2.34164554
X -10.81024395 7.30131472 -1.89443045
X -10.81024395 1.17082124 1.89442667
X -10.81024395 6.40688544 -6.57771163
X -2.75276384 11.36655957 -8.02492744
X -10.81024395 12.53738081 -6.13050077
X -6.35617849 8.74852368 -12.26099425
X -10.81024395 7.30131283 -6.13049843
X 0.00000000 7.57771046 3.78885100
X -9.43386203 9.19574022 -5.68328568
X -4.97979657 12.98459779 1.44720780
X -8.05748011 14.87902329 -2.34164743
X -4.97979657 9.19573833 -9.91935366
X -13.03727668 8.02492132 -2.34164437
X -9.43386203 19.11508936 -6.57771730
X -2.75276384 6.13049159 -8.02492510
X -7.20682930 16.04984263 -4.68328874
X -14.41365860 9.91934682 -6.13049960
X -8.58321122 4.23606420 -8.47213785
X -4.45406546 13.70820394 -0.00000612
X -9.43386203 6.85410008 -4.23607104
X -18.86772405 13.70820015 -8.47214208
X -14.41365860 16.04984218 -5.68328874
X -3.60341465 1.17081746 -6.57770929
X -11.66089476 7.57770244 -14.15542092
X -5.83044738 8.02492132 -2.34164437
X -7.20682930 11.36655767 -12.26099541
X -6.35617849 12.53737891 -10.36656874
X 4.45406546 13.70820205 -4.23607410
X -7.20682930 7.57771046 3.78885100
X -9.43386203 9.19574445 3.78885028
X -14.41365860 7.57770857 -0.44721698
X -9.43386203 4.51245760 -8.02492438
X -10.81024395 2.61803210 -4.23606915
X -13.03727668 4.23606798 -0.00000189
X -13.03727668 8.02491943 -6.57771235
X -9.43386203 6.85409395 -17.94427498
X -1.37638192 5.68327884 -6.13049771
X -10.81024395 11.09016995 -0.00000495
X 0.85065081 14.87902518 1.89442055
X -7.20682930 18.39148087 -10.36657136
X -12.18662587 3.06524296 -10.36656452
X -9.43386203 0.72360426 -5.68328190
X -3.60341465 14.87902094 -7.57771541
X -1.37638192 15.60262754 -8.02492933
X -9.43386203 5.40688733 -2.34164320
X -11.66089476 11.36655767 -12.26099541
X -1.37638192 5.68327695 -10.36656569
X -1.37638192 1.89442172 -12.26099119
X 2.22703273 3.06524296 -10.36656452
X -3.60341465 12.53738270 -1.89443279
X -7.20682930 16.04983839 -14.15542469
X -7.20682930 9.91934448 -11.36656758
X 0.00000000 3.78885145 -6.57771046
X -3.60341465 12.53737891 -10.36656874
X -2.75276384 12.26098740 -6.57771424
X -7.20682930 -0.00000378 -8.47213596
X -8.05748011 11.09016616 -8.47214091
X -8.58321122 17.94426812 -8.47214397
X 0.00000000 12.26098696 -7.57771424
X -4.97979657 16.77344688 -10.36657064
X -4.97979657 14.43180630 -9.91935599
X -10.81024395 17.22066342 -3.78886207
X -7.20682930 14.60262754 -8.02492888
X -7.20682930 16.04984218 -5.68328874
X 4.45406546 9.91934682 -6.13049960
X -2.75276384 8.47213218 -8.47213974
X -4.97979657 5.40688922 1.89442478
X -9.43386203 16.77344688 -10.36657064
X -3.60341465 21.00951486 -10.36657253
X -3.60341465 8.74853170 5.68327767
X -0.00000000 -0.00000378 -8.47213596
X -3.60341465 11.09016806 -4.23607293
X -7.20682930 9.91934871 -1.89443162
X -1.37638192 11.81377231 -9.91935483
X -7.20682930 16.04984642 3.78884722
X -6.35617849 11.09016806 -4.23607293
X -9.43386203 6.85409585 -13.70820700
X -8.58321122 8.02491519 -16.04984831
X -16.64069133 6.85410197 -0.00000306
X -7.20682930 5.23606420 -8.47213830
X -9.95959314 6.13049159 -8.02492510
X -8.58321122 14.15541669 -1.89443351
X -7.20682930 17.49705303 -11.81378456
X -1.37638192 9.47213217 -8.47214018
X -15.26430941 11.09016806 -4.23607293
X 0.85065081 11.09016995 -0.00000495
X -4.97979657 19.11509126 -2.34164932
X -4.97979657 11.53737891 -10.36656830
X -14.41365860 3.78885334 -2.34164248
X -8.58321122 10.36655767 -12.26099497
X -9.43386203 12.98459968 5.68327578
X -7.20682930 9.91935294 7.57770434
X -4.97979657 8.30131093 -10.36656685
X -9.43386203 8.30131093 -10.36656685
X -8.58321122 8.02492321 1.89442361
X -4.45406546 9.91934682 -6.13049960
X -10.81024395 14.87902518 1.89442055
X -15.26430941 7.30131283 -6.13049843
X -8.58321122 14.15541289 -10.36656947
X 0.85065081 7.30131283 -6.13049843
X -12.18662587 16.77344878 -6.13050266
X -11.66089476 11.36656146 -3.78885946
X -1.37638192 8.02491519 -16.04984831
X -8.58321122 17.94427192 -0.00000801
X -7.20682930 13.70819970 -9.47214208
X -7.20682930 7.57770668 -4.68328496
X -10.81024395 4.95967224 -5.68328379
X -5.83044738 14.15541669 -1.89443351
X -5.83044738 4.23606420 -8.47213785
X -5.83044738 5.68328073 -1.89442973
X -7.20682930 22.18033989 -0.00000990
X 0.00000000 0.00000000 0.00000000
X -3.60341465 17.22065963 -12.26099803
X 2.22703273 6.85410197 -0.00000306
X -16.64069133 12.98459355 -8.02492816
X -7.20682930 -2.34164437 -8.02492132
X -7.20682930 12.26098740 -6.57771424
X -7.20682930 3.78885145 -6.57771046
X -15.26430941 11.09016616 -8.47214091
X -7.20682930 13.70820205 -4.23607410
X -10.81024395 8.74852368 -12.26099425
X -14.41365860 12.26098506 -11.81378222
X -13.03727668 9.47213407 -4.23607221
X -2.22703273 9.19573643 -14.15542164
X -9.43386203 16.77345068 -1.89443468
X -7.20682930 12.26098506 -11.81378222
X -5.83044738 17.94426812 -8.47214397
X -9.43386203 4.51245571 -12.26099236
X -11.66089476 7.57770623 -5.68328496
X -5.83044738 1.89442361 -8.02492321
X -1.37638192 8.02491898 -7.57771235
X -8.05748011 14.87902139 -6.57771541
X 2.22703273 9.19573643 -14.15542164
X -7.20682930 14.60262564 -12.26099686
X -8.58321122 11.81377465 -4.68328685
X -13.03727668 8.02491519 -16.04984831
X 4.45406546 9.91934871 -1.89443162
X -7.20682930 9.91934916 -0.89443162
X -10.81024395 4.95967647 3.78885217
X -7.20682930 -0.00000189 -4.23606798
X -2.22703273 10.64295720 1.89442244
X -6.35617849 14.87902139 -6.57771541
X -3.60341465 1.17081935 -2.34164131
X -9.43386203 10.64294918 -16.04984947
X -1.37638192 4.23606798 -0.00000189
X -16.64069133 9.19573643 -14.15542164
X -9.43386203 12.98459545 -3.78886018
X -11.66089476 12.26099119 1.89442172
X -7.20682930 3.78884911 -11.81377844
X -9.43386203 0.72360048 -14.15541786
X -5.83044738 8.02491519 -16.04984831
X -5.83044738 10.36656146 -3.78885901
X -5.83044738 11.81377231 -9.91935483
X -7.20682930 17.49705114 -16.04985253
X -12.18662587 12.98459355 -8.02492816
X -16.64069133 10.64295531 -2.34164554
X -4.97979657 0.72360237 -9.91934988
X 0.00000000 16.04984028 -9.91935672
X -2.75276384 3.78884722 -16.04984642
X -16.64069133 16.77344878 -6.13050266
X -11.66089476 3.78884911 -11.81377844
X -4.97979657 4.51245949 -3.78885640
X -3.60341465 -1.17082124 -1.89442667
X 0.00000000 13.70820015 -8.47214208
X -2.22703273 3.06524296 -10.36656452
X -4.97979657 10.64294918 -16.04984947
X -4.97979657 16.77344878 -6.13050266
X -12.18662587 9.19573833 -9.91935366
X -12.18662587 6.85410197 -0.00000306
X -2.75276384 11.36656146 -3.78885946
X -4.97979657 6.85409585 -13.70820700
X -10.81024395 -1.17082313 -6.13049465
X -10.81024395 6.40688733 -2.34164365
X -9.43386203 15.32623413 -8.47214280
X 0.00000000 9.91934682 -6.13049960
X -9.43386203 9.19574067 -4.68328568
X -13.03727668 9.47213217 -8.47214018
X -16.64069133 12.98459165 -12.26099613
X -7.20682930 1.44721275 -1.89442784
X -7.20682930 11.36656146 -3.78885946
X -3.60341465 14.87901715 -16.04985136
X -6.35617849 4.95967224 -5.68328379
X -13.03727668 17.94426812 -8.47214397
X -8.58321122 4.23606609 -4.23606987
X -4.97979657 10.64295720 1.89442244
X -6.35617849 14.87902518 1.89442055
X -2.22703273 10.64295341 -6.57771351
X -2.75276384 6.13048970 -12.26099308
X -3.60341465 13.43180820 -5.68328757
X -2.75276384 11.36655767 -12.26099541
X -6.35617849 4.95966846 -14.15541975
X -12.18662587 12.98459545 -3.78886018
X -12.18662587 10.64295531 -2.34164554
X -4.45406546 13.70820205 -4.23607410
X -7.20682930 1.44721086 -6.13049582
X -15.26430941 11.09016995 -0.00000495
X -12.18662587 9.19574022 -5.68328568
X -15.26430941 4.95967035 -9.91935177
X -13.03727668 9.47213596 -0.00000423
X -8.58321122 11.81377421 -5.68328685
X -7.20682930 1.44720897 -10.36656380
X -3.60341465 11.09016382 -13.70820889
X -8.05748011 4.95966846 -14.15541975
X -1.37638192 10.36655957 -8.02492699
X -13.03727668 11.81377655 -0.44721887
X -3.60341465 6.40688733 -2.34164365
X 0.00000000 19.83869551 -8.02493122
X -4.97979657 6.85410008 -4.23607104
X -12.18662587 16.77345068 -1.89443468
X -5.83044738 4.23606609 -4.23606987
X -10.81024395 11.09016806 -4.23607293
X 0.00000000 7.57770668 -4.68328496
X 4.45406546 13.70820394 -0.00000612
X -8.05748011 8.74852368 -12.26099425
X 4.45406546 6.13049348 -3.78885712
X -10.81024395 21.00951865 -1.89443657
X -13.03727668 5.68328073 -1.89442973
X -3.60341465 8.74852747 -3.78885829
X -6.35617849 12.53738081 -6.13050077
X -8.05748011 4.95967224 -5.68328379
X -5.83044738 10.36655957 -8.02492699
X -15.26430941 8.74852368 -12.26099425
X -14.41365860 3.78885145 -6.57771046
X -11.66089476 9.91934492 -10.36656758
X -10.81024395 2.61803021 -8.47213713
X -7.20682930 3.78885334 -2.34164248
X 0.00000000 19.83869362 -12.26099920
X -5.83044738 11.81377655 -0.44721887
X -9.43386203 10.64295341 -6.57771351
X -2.75276384 3.78885100 -7.57771046
X -4.97979657 11.53738270 -1.89443234
X -8.58321122 8.02491898 -7.57771235
X -13.03727668 4.23606420 -8.47213785
X -9.43386203 9.19573833 -9.91935366
X -15.26430941 7.30131094 -10.36656641
X -9.95959314 6.13049348 -3.78885712
X -8.58321122 11.81377844 3.78884911
X -5.83044738 15.60262944 -3.78886135
X -7.20682930 3.78884722 -16.04984642
X -1.37638192 15.60262944 -3.78886135
X 0.85065081 11.09016806 -4.23607293
X -1.37638192 14.15541479 -6.13050149
X -4.97979657 5.40688733 -2.34164320
X -10.81024395 7.30131094 -10.36656641
X -5.83044738 1.89442550 -3.78885523
X -7.20682930 22.18033610 -8.47214586
X -8.05748011 7.30131094 -10.36656641
X -14.41365860 3.78885523 1.89442550
X 0.85065081 14.87902139 -6.57771541
X -6.35617849 4.95967035 -9.91935177
X -6.35617849 11.09016616 -8.47214091
X -4.97979657 6.85409774 -9.47213902
X -3.60341465 8.74852368 -12.26099425
X -12.18662587 3.06524485 -6.13049654
X -3.60341465 18.66787238 -14.15542586
X -8.05748011 8.74852558 -8.02492627
X -13.03727668 1.89442361 -8.02492321
X -4.45406546 9.91934492 -10.36656758
X -2.75276384 13.70820394 -0.00000612
X -13.03727668 11.81377465 -4.68328685
X -3.60341465 4.95967458 -0.44721581
X -10.81024395 14.87901904 -11.81378338
X -12.18662587 12.98459165 -12.26099613
X -5.83044738 9.47213596 -0.00000423
X -4.97979657 15.32623413 -8.47214280
X -2.75276384 3.78884911 -11.81377844
X 2.22703273 10.64295341 -6.57771351
X -8.58321122 9.47213217 -8.47214018
X -16.64069133 9.19574022 -5.68328568
X 0.00000000 19.83869741 -3.78886324
X -7.20682930 6.13049393 -2.78885712
X -2.75276384 7.57770434 -9.91935294
X 4.45406546 6.13049159 -8.02492510
X -15.26430941 12.53738270 -1.89443279
X -1.37638192 10.36655767 -12.26099497
X -8.05748011 7.30131472 -1.89443045
X -7.20682930 7.57770434 -9.91935294
X -15.26430941 4.95966846 -14.15541975
X 0.00000000 6.13049348 -3.78885712
X -14.41365860 -0.00000189 -4.23606798
X -13.03727668 15.60262944 -3.78886135
X -9.43386203 11.53737891 -10.36656830
X -16.64069133 16.77345068 -1.89443468
X -13.03727668 8.02491898 -7.57771235
X -9.95959314 9.91934871 -1.89443162
X -6.35617849 11.09016995 -0.00000495
X -14.41365860 6.13049348 -3.78885712
X -7.20682930 19.83869741 -3.78886324
X -3.60341465 13.43180630 -9.91935555
X -8.58321122 5.68327695 -10.36656569
X -8.58321122 10.36655957 -8.02492699
X -7.20682930 9.91934068 -19.83870353
X -9.43386203 3.06524485 -6.13049654
X -9.43386203 14.43180630 -9.91935599
X -1.37638192 14.15541669 -1.89443351
X -11.66089476 7.57770434 -9.91935294
X -1.37638192 11.81377465 -4.68328685
X -8.58321122 11.81377655 -0.44721887
X -16.64069133 6.85409819 -8.47213902
X -9.95959314 6.13048970 -12.26099308
X -1.37638192 8.02491709 -11.81378033
X -14.41365860 0.00000000 0.00000000
X 2.22703273 6.85410008 -4.23607104
X -2.22703273 9.19574022 -5.68328568
X -12.18662587 6.85409819 -8.47213902
X -16.64069133 3.06524674 -1.89442856
X -4.97979657 6.85410197 -0.00000306
X -7.20682930 9.91934682 -6.13049960
X -7.20682930 6.13049348 -3.78885712
X -3.60341465 6.40688544 -6.57771163
X -10.81024395 4.95967269 -4.68328379
X -7.20682930 12.26098316 -16.04985019
X -11.66089476 9.91934871 -1.89443162
X -2.22703273 12.98459165 -12.26099613
X -5.83044738 1.89442172 -12.26099119
X -3.60341465 14.87902518 1.89442055
X -11.66089476 3.78885100 -7.57771046
X -3.60341465 2.61803399 -0.00000117
X -1.37638192 8.02491943 -6.57771235
X -13.03727668 15.60262754 -8.02492933
X -10.81024395 17.22066152 -8.02493005
X -5.83044738 15.60262754 -8.02492933
X 2.22703273 3.06524485 -6.13049654
X -4.97979657 10.64295531 -2.34164554
X -1.37638192 17.94426812 -8.47214397
X -13.03727668 8.02492321 1.89442361
X -9.43386203 14.43180440 -14.15542397
X -3.60341465 21.00951675 -6.13050455
X -16.64069133 9.19573833 -9.91935366
X -4.97979657 9.19574445 3.78885028
X 0.85065081 8.74852368 -12.26099425
X -1.37638192 1.89442361 -8.02492321
X 2.22703273 10.64295720 1.89442244
X -18.86772405 6.13049348 -3.78885712
X -8.58321122 5.68328073 -1.89442973
X -11.66089476 8.47213596 -0.00000378
X -4.97979657 19.11508936 -6.57771730
X -4.45406546 9.91934871 -1.89443162
X -7.20682930 22.18033799 -4.23607788
X -2.75276384 12.26098930 -2.34164626
X -3.60341465 4.95967269 -4.68328379
X -11.66089476 16.04984453 -0.44722076
X -10.81024395 11.09016616 -8.47214091
X 0.85065081 12.53737891 -10.36656874
X 2.22703273 3.06524674 -1.89442856
X 2.22703273 12.98459165 -12.26099613
X -10.81024395 4.95966846 -14.15541975
X -14.41365860 7.57771046 3.78885100
X -15.26430941 8.74852558 -8.02492627
X -18.86772405 6.13048970 -12.26099308
X 0.85065081 8.74852558 -8.02492627
X -10.81024395 14.87902139 -6.57771541
X -3.60341465 14.87901904 -11.81378338
X -7.20682930 6.13049771 5.68327884
X -3.60341465 18.66787427 -9.91935789
X -3.60341465 8.74852792 -2.78885829
X -7.20682930 9.91935105 3.34163636
X -18.86772405 9.91934871 -1.89443162
X -13.03727668 17.94427002 -4.23607599
X -4.97979657 11.53738081 -6.13050032
X -5.83044738 9.47213217 -8.47214018
X -13.03727668 17.94427192 -0.00000801
X 0.00000000 3.78885334 -2.34164248
X -8.58321122 4.23606798 -0.00000189
X -7.20682930 13.70819781 -13.70821005
X -5.83044738 8.02492321 1.89442361
X -14.41365860 12.26098316 -16.04985019
X -3.60341465 -1.17082502 -10.36656263
X -16.64069133 12.98459545 -3.78886018
X -6.35617849 8.74852747 -3.78885829
X -1.37638192 15.60262564 -12.26099730
X 0.00000000 6.13048970 -12.26099308
X -5.83044738 5.68327884 -6.13049771
X -11.66089476 13.70820015 -8.47214208
X -10.81024395 8.74852558 -8.02492627
X -3.60341465 17.22066342 -3.78886207
X -4.97979657 6.85409395 -17.94427498
X -8.05748011 4.95967035 -9.91935177
X -18.86772405 9.91934492 -10.36656758
X -18.86772405 6.13049159 -8.02492510
X -8.58321122 5.68327884 -6.13049771
X -4.97979657 14.43180440 -14.15542397
X -4.45406546 6.13048970 -12.26099308
X -3.60341465 4.95967224 -5.68328379
X -4.97979657 0.72360426 -5.68328190
X -15.26430941 7.30131472 -1.89443045
X -7.20682930 3.78885523 1.89442550
X -4.97979657 9.19574022 -5.68328568
X -3.60341465 7.30131283 -6.13049843
X -7.20682930 7.57770623 -5.68328496
X -9.43386203 5.40688544 -6.57771118
X -5.83044738 11.81377844 3.78884911
X -2.75276384 7.57770623 -5.68328496
X -7.20682930 6.13049582 1.44721086
X -10.81024395 8.74852981 1.44720969
X -13.03727668 10.36655767 -12.26099497
X -2.22703273 9.19573833 -9.91935366
X -5.83044738 15.60262564 -12.26099730
X -3.60341465 1.17082124 1.89442667
X -4.97979657 9.19573643 -14.15542164
X -4.97979657 8.30131472 -1.89443090
X -13.03727668 1.89442172 -12.26099119
X -7.20682930 9.91934492 -10.36656758
X 2.22703273 16.77345068 -1.89443468
X 0.85065081 4.95966846 -14.15541975
X -9.43386203 19.11509316 1.89441865
X -13.03727668 11.81377231 -9.91935483
X -11.66089476 6.13049159 -8.02492510
X -10.81024395 13.43180440 -14.15542352
X -9.95959314 13.70820205 -4.23607410
X -8.58321122 14.15541479 -6.13050149
X -10.81024395 12.53738270 -1.89443279
X -10.81024395 2.61803399 -0.00000117
X -13.03727668 10.36656146 -3.78885901
X -1.37638192 11.81377844 3.78884911
X -2.22703273 16.77344878 -6.13050266
X -4.97979657 4.51245760 -8.02492438
X -7.20682930 12.26098930 -2.34164626
X -10.81024395 14.87902329 -2.34164743
X -3.60341465 11.09016995 -0.00000495
X -10.81024395 11.09016572 -9.47214091
X -2.22703273 16.77345068 -1.89443468
X -1.37638192 11.81377655 -0.44721887
X -3.60341465 4.95966846 -14.15541975
X -9.43386203 12.98459589 -2.78886018
X -13.03727668 11.81377041 -14.15542280
X -3.60341465 4.95967035 -9.91935177
X -2.22703273 12.98459545 -3.78886018
X -11.66089476 9.91934682 -6.13049960
X -10.81024395 1.17081935 -2.34164131
X -9.43386203 10.64295107 -11.81378150
X 0.00000000 7.57770857 -0.44721698
X -8.05748011 12.53737891 -10.36656874
X -2.22703273 10.64295531 -2.34164554
X -2.75276384 9.91934871 -1.89443162
X -9.43386203 12.98459165 -12.26099613
X -12.18662587 10.64295720 1.89442244
X -14.41365860 19.83869551 -8.02493122
X -12.18662587 16.77344688 -10.36657064
X -5.83044738 11.81377465 -4.68328685
X -3.60341465 14.87902329 -2.34164743
X -4.97979657 8.30131283 -6.13049888
X 2.22703273 12.98459355 -8.02492816
X -9.43386203 15.32623603 -4.23607482
X -8.58321122 9.47213407 -4.23607221
X -8.58321122 8.02492132 -2.34164437
X -14.41365860 9.91934871 -1.89443162
X -7.20682930 11.36655957 -8.02492744
X -2.22703273 12.98459355 -8.02492816
X -5.83044738 14.15541289 -10.36656947
X -9.43386203 19.11509126 -2.34164932
X -2.22703273 3.06524674 -1.89442856
X -7.20682930 8.47213218 -8.47213974
X -16.64069133 3.06524296 -10.36656452
X -10.81024395 -1.17082124 -1.89442667
X -9.95959314 13.70820394 -0.00000612
X -14.41365860 13.70820015 -8.47214208
X -4.45406546 13.70820015 -8.47214208
X -13.03727668 1.89442550 -3.78885523
X -13.03727668 10.36655957 -8.02492699
X -16.64069133 10.64295720 1.89442244
X -7.20682930 19.83869551 -8.02493122
X -1.37638192 10.36656146 -3.78885901
X -2.22703273 6.85410008 -4.23607104
X -3.60341465 7.30131094 -10.36656641
X -9.95959314 9.91934492 -10.36656758
X -9.43386203 10.64295297 -7.57771352
X -10.81024395 18.66787617 -5.68328991
X 0.85065081 7.30131094 -10.36656641
X -8.05748011 12.53738270 -1.89443279
X -10.81024395 4.95967458 -0.44721581
X -2.75276384 8.47213407 -4.23607176
X -4.97979657 16.77345068 -1.89443468
X -4.97979657 6.85409819 -8.47213902
X -4.97979657 15.32623603 -4.23607482
X -10.81024395 6.40688922 1.89442433
X -10.81024395 8.74853170 5.68327767
X -6.35617849 7.30131094 -10.36656641
X -8.58321122 17.94427002 -4.23607599
X -1.37638192 4.23606609 -4.23606987
X -7.20682930 13.70820394 -0.00000612
X -3.60341465 12.53738081 -6.13050077
X -9.43386203 11.53738081 -6.13050032
X 0.85065081 7.30131472 -1.89443045
X 0.85065081 12.53738081 -6.13050077
X 2.22703273 6.85409819 -8.47213902
X -5.83044738 8.02491709 -11.81378033
X -2.22703273 3.06524485 -6.13049654
X -14.41365860 16.04984028 -9.91935672
X -8.05748011 14.87902518 1.89442055
X -4.97979657 12.98459165 -12.26099613
X -5.83044738 11.81377041 -14.15542280
X -9.43386203 6.85409774 -9.47213902
X -1.37638192 17.94427002 -4.23607599
X -10.81024395 14.87901715 -16.04985136
X -11.66089476 6.13048970 -12.26099308
X -3.60341465 11.09016192 -17.94427686
X -7.20682930 9.91934258 -15.60263556
X -16.64069133 16.77344688 -10.36657064
X -7.20682930 12.26099119 1.89442172
X -7.20682930 -2.34164248 -3.78885334
X -5.83044738 5.68327695 -10.36656569
X -7.20682930 7.57770857 -0.44721698
X -11.66089476 3.78884722 -16.04984642
X -18.86772405 13.70820205 -4.23607410
X -8.05748011 12.53738081 -6.13050077
X -2.22703273 6.85410197 -0.00000306
X -14.41365860 6.13048970 -12.26099308
X -4.97979657 12.98459968 5.68327578
X -9.95959314 9.91934682 -6.13049960
X -13.03727668 14.15541669 -1.89443351
X -7.20682930 19.83869362 -12.26099920
X -9.43386203 8.30131283 -6.13049888
X 2.22703273 9.19574022 -5.68328568
X 4.45406546 6.13048970 -12.26099308
X -4.97979657 15.32623793 -0.00000684
X -9.43386203 15.32623793 -0.00000684
X -13.03727668 14.15541479 -6.13050149
X -12.18662587 3.06524674 -1.89442856
X -5.83044738 11.81377421 -5.68328685
X -10.81024395 18.66787238 -14.15542586
X -14.41365860 13.70820205 -4.23607410
X -1.37638192 8.02492132 -2.34164437
X -3.60341465 4.95967647 3.78885217
X 0.00000000 3.78885523 1.89442550
X -1.37638192 14.15541289 -10.36656947
X -7.20682930 7.57770244 -14.15542092
X -7.20682930 0.00000000 0.00000000
X -7.20682930 12.26098696 -7.57771424
X -2.75276384 12.26099119 1.89442172
X -4.45406546 6.13049159 -8.02492510
X -15.26430941 12.53737891 -10.36656874
X -14.41365860 19.83869741 -3.78886324
X -8.58321122 8.02491709 -11.81378033
X -18.86772405 9.91934682 -6.13049960
X 0.85065081 12.53738270 -1.89443279
X -9.43386203 6.85409819 -8.47213902
X 0.00000000 13.70820205 -4.23607410
X -10.81024395 21.00951675 -6.13050455
X -8.58321122 11.81377231 -9.91935483
X -13.03727668 5.68327695 -10.36656569
X -7.20682930 5.23606798 -0.00000234
X 0.85065081 4.95967224 -5.68328379
X -16.64069133 6.85410008 -4.23607104
X -15.26430941 14.87902139 -6.57771541
X -2.22703273 16.77344688 -10.36657064
X -7.20682930 2.34164059 -0.44721464
X -10.81024395 4.95967035 -9.91935177
X 0.00000000 16.04984218 -5.68328874
X -9.43386203 12.98459355 -8.02492816
X -9.43386203 3.06524674 -1.89442856
X -8.58321122 15.60262754 -8.02492933
X -12.18662587 9.19573643 -14.15542164
X -0.00000000 -0.00000189 -4.23606798
X -13.03727668 11.81377844 3.78884911
X -10.81024395 14.87902094 -7.57771541
X -7.20682930 16.04984453 -0.44722076
X -9.43386203 5.40688922 1.89442478
X -10.81024395 12.53737891 -10.36656874
X 0.85065081 4.95967035 -9.91935177
X -11.66089476 16.04984642 3.78884722
X 2.22703273 16.77344878 -6.13050266
X 0.00000000 9.91934492 -10.36656758
X -9.43386203 9.19574256 -0.44721770
X -8.58321122 15.60262944 -3.78886135
X -4.97979657 10.64295297 -7.57771352
X -10.81024395 11.09016382 -13.70820889
X -9.43386203 8.30131472 -1.89443090
X -7.20682930 -2.34164626 -12.26098930
X -8.58321122 1.89442550 -3.78885523
X -13.03727668 11.81377421 -5.68328685
X 2.22703273 12.98459545 -3.78886018
X -4.97979657 10.64295107 -11.81378150
X 2.22703273 10.64295531 -2.34164554
X -4.97979657 4.51245571 -12.26099236
X -3.60341465 13.43180440 -14.15542352
X 4.45406546 9.91934492 -10.36656758
X -7.20682930 14.60262944 -3.78886090
X -3.60341465 14.87902139 -6.57771541
X -7.20682930 8.47213407 -4.23607176
X -8.58321122 1.89442361 -8.02492321
X -2.75276384 9.91934682 -6.13049960
X -7.20682930 17.49705493 -7.57771658
X -7.20682930 18.39148276 -6.13050338
X -4.97979657 3.06524485 -6.13049654
X -9.43386203 11.53738270 -1.89443234
X -10.81024395 17.22065963 -12.26099803
X -3.60341465 7.30131472 -1.89443045
X -3.60341465 6.40688922 1.89442433
X -18.86772405 13.70820394 -0.00000612
X -11.66089476 12.26098740 -6.57771424
X -14.41365860 16.04983839 -14.15542469
X -16.64069133 3.06524485 -6.13049654
X -7.20682930 13.70819591 -17.94427803
X -1.37638192 17.94427192 -0.00000801
X -10.81024395 -1.17082502 -10.36656263
X -14.41365860 13.70820394 -0.00000612
X -15.26430941 14.87902518 1.89442055
X -7.20682930 13.70820015 -8.47214208
X -2.22703273 6.85409819 -8.47213902
X -6.35617849 8.74852558 -8.02492627
X -11.66089476 11.36655957 -8.02492744
X -14.41365860 12.26098696 -7.57771424
X -9.43386203 3.06524296 -10.36656452
X 0.00000000 13.70820394 -0.00000612
X -7.20682930 16.04984028 -9.91935672
X -2.75276384 16.04984642 3.78884722
X -8.05748011 11.09016806 -4.23607293
X -13.03727668 4.23606609 -4.23606987
X 0.00000000 16.04983839 -14.15542469
X -9.43386203 0.72360237 -9.91934988
X -3.60341465 8.74852558 -8.02492627
X -12.18662587 10.64295341 -6.57771351
X -3.60341465 2.61803210 -4.23606915
X -8.58321122 11.81377041 -14.15542280
X -9.43386203 12.98459779 1.44720780
X -16.64069133 10.64295341 -6.57771351
X -11.66089476 6.13049348 -3.78885712
X 2.22703273 9.19573833 -9.91935366
X -7.20682930 18.39148466 -1.89443540
X -2.75276384 8.47213596 -0.00000378
X -5.83044738 4.23606798 -0.00000189
X -5.83044738 8.02491943 -6.57771235
X -9.95959314 13.70820015 -8.47214208
X 0.85065081 11.09016616 -8.47214091
X -8.58321122 9.47213596 -0.00000423
X -7.20682930 2.34163870 -4.68328262
X -8.05748011 8.74852747 -3.78885829
X -4.97979657 3.06524674 -1.89442856
X -1.37638192 11.81377041 -14.15542280
X -14.41365860 6.13049159 -8.02492510
X 0.00000000 9.91934871 -1.89443162
X -8.58321122 15.60262564 -12.26099730
X -8.58321122 8.02491943 -6.57771235
X -15.26430941 12.53738081 -6.13050077
X -5.83044738 14.15541479 -6.13050149
X 0.85065081 14.87902329 -2.34164743
X -11.66089476 13.70820394 -0.00000612
X -6.35617849 7.30131283 -6.13049843
X -2.75276384 13.70820205 -4.23607410
X -4.97979657 12.98459589 -2.78886018
X -7.20682930 5.23606609 -4.23607032
X -7.20682930 6.13049159 -8.02492510
X -9.43386203 9.19573643 -14.15542164
X -11.66089476 8.47213218 -8.47213974
X -10.81024395 1.17081746 -6.57770929
X -9.43386203 16.77344878 -6.13050266
X -10.81024395 13.43180630 -9.91935555
X -7.20682930 2.34164248 3.78885334
X -1.37638192 8.02492321 1.89442361
X -4.97979657 3.06524296 -10.36656452
X -2.75276384 9.91934492 -10.36656758
X -10.81024395 11.09016192 -17.94427686
X 0.85065081 8.74852747 -3.78885829
X -4.97979657 14.43180820 -5.68328802
X -14.41365860 9.91934492 -10.36656758
X -13.03727668 14.15541289 -10.36656947
X -8.05748011 11.09016995 -0.00000495
X 4.45406546 13.70820015 -8.47214208
X -9.43386203 4.51245949 -3.78885640
X -4.97979657 5.40688544 -6.57771118
X -4.97979657 10.64295341 -6.57771351
