343
# (c) 2025 a-prokhoda (Alexander S. Prokhoda) | Part of Quasicrystals Research Project | N=343
X    0    5    2
X    4    0    2
X    4    3    2
X    6    6    0
X    6    4    3
X    0    5    4
X    4    3    1
X    5    6    4
X    4    3    3
X    3    1    2
X    3    1    6
X    6    2    4
X    6    5    4
X    6    0    5
X    2    5    6
X    1    1    3
X    0    5    1
X    4    1    5
X    4    5    3
X    0    3    1
X    3    6    5
X    0    1    6
X    5    5    6
X    2    0    4
X    1    6    5
X    0    4    2
X    3    5    2
X    6    1    4
X    2    4    5
X    1    4    4
X    4    4    0
X    3    1    1
X    2    5    4
X    3    3    6
X    5    2    1
X    5    3    1
X    0    4    3
X    6    3    0
X    5    1    5
X    2    3    6
X    1    2    5
X    5    4    5
X    2    1    6
X    3    5    5
X    1    4    6
X    1    1    4
X    4    1    6
X    1    5    6
X    0    2    6
X    0    4    6
X    4    4    2
X    6    4    4
X    5    1    4
X    4    6    3
X    1    0    5
X    3    3    1
X    4    6    0
X    5    0    5
X    4    3    5
X    6    3    6
X    0    3    6
X    0    5    5
X    0    3    3
X    3    6    2
X    1    3    2
X    4    5    2
X    5    5    1
X    5    6    2
X    5    6    0
X    1    3    1
X    4    0    0
X    5    1    0
X    1    5    1
X    6    0    6
X    1    2    3
X    5    2    4
X    4    3    4
X    4    2    1
X    5    6    1
X    5    5    5
X    3    0    2
X    1    0    1
X    5    6    3
X    2    6    4
X    4    6    4
X    1    5    4
X    0    5    6
X    6    3    1
X    3    2    2
X    4    4    4
X    4    4    6
X    6    5    1
X    3    2    1
X    3    0    0
X    0    4    0
X    3    5    3
X    4    2    5
X    0    4    4
X    0    4    5
X    0    1    2
X    5    4    1
X    1    2    1
X    0    6    4
X    0    0    1
X    0    1    5
X    0    6    6
X    1    2    6
X    6    5    5
X    5    0    6
X    2    5    0
X    3    0    1
X    3    4    4
X    0    2    0
X    4    5    6
X    1    0    4
X    0    6    5
X    1    6    1
X    2    6    6
X    5    2    2
X    2    1    1
X    2    1    5
X    2    2    0
X    4    6    2
X    3    5    6
X    2    5    5
X    6    2    0
X    1    4    1
X    3    6    0
X    0    4    1
X    2    0    3
X    1    2    2
X    6    4    1
X    4    5    0
X    3    4    2
X    0    6    3
X    5    4    4
X    3    4    1
X    1    2    0
X    2    2    1
X    1    0    6
X    6    4    0
X    3    3    4
X    1    1    6
X    1    1    5
X    1    5    2
X    5    2    0
X    2    0    1
X    2    6    2
X    2    2    6
X    4    2    6
X    6    6    1
X    1    0    2
X    5    1    2
X    3    1    3
X    2    2    3
X    5    4    2
X    5    2    6
X    5    0    0
X    3    5    0
X    1    6    3
X    4    6    1
X    0    2    2
X    0    2    1
X    0    1    0
X    3    1    4
X    3    3    3
X    4    5    1
X    3    2    3
X    6    4    6
X    3    6    6
X    6    6    5
X    6    2    6
X    2    1    2
X    5    6    5
X    5    6    6
X    4    3    6
X    4    5    4
X    2    6    3
X    5    5    0
X    0    5    3
X    3    0    5
X    5    4    6
X    6    2    3
X    1    3    3
X    1    6    4
X    2    2    2
X    4    6    5
X    6    5    0
X    6    5    3
X    2    5    2
X    6    3    5
X    1    6    6
X    1    0    3
X    6    6    3
X    0    3    0
X    0    6    1
X    1    3    4
X    4    4    5
X    4    6    6
X    1    4    3
X    6    3    3
X    4    1    2
X    6    1    6
X    4    2    2
X    0    1    3
X    3    4    6
X    6    4    2
X    3    4    0
X    2    3    3
X    5    1    1
X    5    1    6
X    6    1    1
X    4    0    5
X    2    4    6
X    2    0    2
X    5    0    3
X    0    2    3
X    3    2    5
X    3    2    6
X    4    2    4
X    5    4    3
X    0    0    6
X    4    3    0
X    1    1    2
X    1    3    0
X    5    5    4
X    6    0    3
X    2    3    0
X    5    2    3
X    0    6    0
X    1    3    6
X    4    0    3
X    6    0    2
X    5    3    4
X    5    5    2
X    0    3    4
X    0    0    5
X    5    1    3
X    2    0    5
X    1    0    0
X    2    3    1
X    0    0    2
X    2    1    0
X    1    4    0
X    3    5    4
X    6    1    5
X    3    0    3
X    2    2    4
X    1    5    3
X    6    2    2
X    2    6    5
X    1    5    0
X    0    0    4
X    1    4    2
X    1    1    1
X    5    3    2
X    6    1    3
X    5    3    5
X    2    6    1
X    5    0    4
X    3    6    1
X    4    4    3
X    0    3    5
X    3    3    2
X    3    4    5
X    2    5    3
X    4    1    0
X    0    0    0
X    4    0    4
X    0    2    4
X    3    0    4
X    3    5    1
X    6    0    4
X    2    2    5
X    0    2    5
X    4    0    6
X    6    1    2
X    6    2    5
X    1    6    0
X    1    1    0
X    4    1    3
X    4    5    5
X    0    3    2
X    0    1    4
X    3    0    6
X    3    6    4
X    3    1    5
X    6    5    2
X    2    1    3
X    6    0    0
X    6    3    4
X    3    2    0
X    0    0    3
X    6    1    0
X    5    3    0
X    0    1    1
X    4    2    3
X    0    6    2
X    4    0    1
X    5    2    5
X    1    4    5
X    4    4    1
X    6    6    2
X    3    4    3
X    2    0    0
X    2    4    2
X    2    4    0
X    1    2    4
X    4    1    1
X    4    2    0
X    3    3    5
X    3    2    4
X    3    1    0
X    3    3    0
X    2    3    4
X    6    2    1
X    4    1    4
X    2    4    4
X    6    0    1
X    5    3    6
X    2    4    1
X    2    1    4
X    3    6    3
X    6    6    6
X    1    3    5
X    2    4    3
X    6    3    2
X    6    5    6
X    1    6    2
X    6    6    4
X    2    6    0
X    5    5    3
X    2    5    1
X    1    5    5
X    2    3    5
X    5    3    3
X    5    0    1
X    2    0    6
X    5    4    0
X    6    4    5
X    2    3    2
X    5    0    2
X    0    5    0
