64
# (c) 2025 a-prokhoda (Alexander S. Prokhoda) | Part of Quasicrystals Research Project | N=64
X    1    3    2
X    2    3    2
X    0    1    0
X    0    1    1
X    0    0    1
X    3    3    1
X    1    3    3
X    0    0    0
X    1    2    3
X    2    0    3
X    1    0    2
X    1    3    0
X    0    2    3
X    1    0    3
X    1    0    1
X    2    1    2
X    3    2    1
X    3    3    0
X    2    0    1
X    3    1    3
X    3    2    2
X    2    3    1
X    1    1    1
X    0    2    2
X    3    2    3
X    0    2    0
X    1    2    1
X    3    0    0
X    3    2    0
X    2    3    0
X    0    1    3
X    0    3    3
X    3    3    3
X    1    3    1
X    1    1    0
X    2    2    0
X    1    1    3
X    3    0    1
X    3    1    1
X    0    3    1
X    3    1    2
X    2    2    3
X    3    0    2
X    2    1    3
X    0    0    2
X    2    2    1
X    2    0    2
X    3    1    0
X    2    0    0
X    1    1    2
X    0    0    3
X    0    2    1
X    2    3    3
X    2    1    0
X    0    3    2
X    1    0    0
X    3    3    2
X    0    3    0
X    1    2    2
X    3    0    3
X    2    1    1
X    1    2    0
X    2    2    2
X    0    1    2
